icsd_412872.cif                         
   1.00000000000000     
    11.6929751984999992   -0.0000011094957925   -0.0000644623383126
    -0.0000014657983461   15.1221400869000000   -0.0000030202499357
    -0.0000628060064802   -0.0000021177888667   11.4395513115000007
   As   Rb
    44    12
Direct
  0.1804864147665057  0.7564991176992137  0.7367398827683758
  0.3195131677729748  0.7435011837843959  0.2367379114717849
  0.6804868598112108  0.7435013548194220  0.2632620964942163
  0.8195136046951319  0.7564990544689110  0.7632601216906210
  0.8195135179630668  0.2435009702171911  0.2632601288241858
  0.6804867908934327  0.2564987457227659  0.7632622192577401
  0.3195131696663012  0.2564986967412253  0.7367377769588757
  0.1804864797378869  0.2435009264215822  0.2367398656697333
  0.0990234366271991  0.7850209612973771  0.9363352459749805
  0.4009778131955528  0.7149785093318570  0.4363338213611030
  0.5990222477988638  0.7149784789593312  0.0636661897423707
  0.9009764736736443  0.7850209729848459  0.5636648147592140
  0.9009765275901955  0.2149790377007861  0.0636647816129994
  0.5990222899569844  0.2850214946344281  0.5636662863757920
  0.4009776708997421  0.2850215484760952  0.9363337279045751
  0.0990235326330833  0.2149790509897613  0.4363351955968113
  0.0825233403729726  0.6150312666390860  0.6817231044618097
  0.4174760620189275  0.8849690555504495  0.1817222914686099
  0.5825237546847362  0.8849691765619454  0.3182778010424343
  0.9174767252543390  0.6150312553207868  0.8182767091362209
  0.9174767815698672  0.3849687773450370  0.3182769307353226
  0.5825238627834182  0.1150308856485438  0.8182777155167429
  0.4174761427926370  0.1150308446988362  0.6817221475342308
  0.0825232853461841  0.3849687125196155  0.1817231859047368
  0.0782010319613136  0.8674830717363733  0.6122706736912420
  0.4217982818252892  0.6325167564022749  0.1122707442400142
  0.5782018661917760  0.6325169359271499  0.3877293541903128
  0.9217988504407941  0.8674830179819750  0.8877295118833715
  0.9217989099060375  0.1325170363205856  0.3877293484479907
  0.5782016652910400  0.3674832438656637  0.8877292669557377
  0.4217982969964638  0.3674831477471727  0.6122706917999636
  0.0782010952648307  0.1325169802210624  0.1122705501956816
  0.4803759496817079  0.8551473972784436  0.4983040191610399
  0.0196272161850999  0.6448518222876629  0.9983047840239507
  0.9803728360178781  0.6448517381676453  0.5016952077328298
  0.5196239815400077  0.8551471470328309  0.0016959723039776
  0.5196240885878396  0.1448525731788379  0.5016959354088044
  0.9803727754908778  0.3551481225320572  0.0016951907809002
  0.0196272514127074  0.3551482251689606  0.4983048166762174
  0.4803758853622995  0.1448527817910374  0.9983040444631115
  0.9999999333297751  0.9735447876925818  0.7500000820227726
  0.5000000663748523  0.5264544290047795  0.2500001543868962
  0.9999999798505996  0.0264552212431681  0.2499999788690559
  0.5000000531482556  0.4735455963426318  0.7499998980642602
  0.9999999696077140  0.2129712864836435  0.7499999892672307
  0.5000000010995080  0.2870286483268671  0.2500000823099811
  0.0000000199364720  0.7870287353482723  0.2499999757297502
  0.5000000428777938  0.7129714249218964  0.7499999026306909
  0.2644419258274269  0.9883626315812748  0.9209124359511023
  0.2355579500403735  0.5116386310463028  0.4209113462193912
  0.7644422265001865  0.5116387607392170  0.0790884930666422
  0.7355582108675804  0.9883627873795859  0.5790874773882564
  0.7355578721803653  0.0116373708707442  0.0790875010519159
  0.7644421067671843  0.4883612769612213  0.5790886309295189
  0.2355578581328430  0.4883611439406010  0.9209114805777361
  0.2644418487982634  0.0116371919439828  0.4209125073161815
 
  0.00000000E+00  0.00000000E+00  0.00000000E+00
  0.00000000E+00  0.00000000E+00  0.00000000E+00
  0.00000000E+00  0.00000000E+00  0.00000000E+00
  0.00000000E+00  0.00000000E+00  0.00000000E+00
  0.00000000E+00  0.00000000E+00  0.00000000E+00
  0.00000000E+00  0.00000000E+00  0.00000000E+00
  0.00000000E+00  0.00000000E+00  0.00000000E+00
  0.00000000E+00  0.00000000E+00  0.00000000E+00
  0.00000000E+00  0.00000000E+00  0.00000000E+00
  0.00000000E+00  0.00000000E+00  0.00000000E+00
  0.00000000E+00  0.00000000E+00  0.00000000E+00
  0.00000000E+00  0.00000000E+00  0.00000000E+00
  0.00000000E+00  0.00000000E+00  0.00000000E+00
  0.00000000E+00  0.00000000E+00  0.00000000E+00
  0.00000000E+00  0.00000000E+00  0.00000000E+00
  0.00000000E+00  0.00000000E+00  0.00000000E+00
  0.00000000E+00  0.00000000E+00  0.00000000E+00
  0.00000000E+00  0.00000000E+00  0.00000000E+00
  0.00000000E+00  0.00000000E+00  0.00000000E+00
  0.00000000E+00  0.00000000E+00  0.00000000E+00
  0.00000000E+00  0.00000000E+00  0.00000000E+00
  0.00000000E+00  0.00000000E+00  0.00000000E+00
  0.00000000E+00  0.00000000E+00  0.00000000E+00
  0.00000000E+00  0.00000000E+00  0.00000000E+00
  0.00000000E+00  0.00000000E+00  0.00000000E+00
  0.00000000E+00  0.00000000E+00  0.00000000E+00
  0.00000000E+00  0.00000000E+00  0.00000000E+00
  0.00000000E+00  0.00000000E+00  0.00000000E+00
  0.00000000E+00  0.00000000E+00  0.00000000E+00
  0.00000000E+00  0.00000000E+00  0.00000000E+00
  0.00000000E+00  0.00000000E+00  0.00000000E+00
  0.00000000E+00  0.00000000E+00  0.00000000E+00
  0.00000000E+00  0.00000000E+00  0.00000000E+00
  0.00000000E+00  0.00000000E+00  0.00000000E+00
  0.00000000E+00  0.00000000E+00  0.00000000E+00
  0.00000000E+00  0.00000000E+00  0.00000000E+00
  0.00000000E+00  0.00000000E+00  0.00000000E+00
  0.00000000E+00  0.00000000E+00  0.00000000E+00
  0.00000000E+00  0.00000000E+00  0.00000000E+00
  0.00000000E+00  0.00000000E+00  0.00000000E+00
  0.00000000E+00  0.00000000E+00  0.00000000E+00
  0.00000000E+00  0.00000000E+00  0.00000000E+00
  0.00000000E+00  0.00000000E+00  0.00000000E+00
  0.00000000E+00  0.00000000E+00  0.00000000E+00
  0.00000000E+00  0.00000000E+00  0.00000000E+00
  0.00000000E+00  0.00000000E+00  0.00000000E+00
  0.00000000E+00  0.00000000E+00  0.00000000E+00
  0.00000000E+00  0.00000000E+00  0.00000000E+00
  0.00000000E+00  0.00000000E+00  0.00000000E+00
  0.00000000E+00  0.00000000E+00  0.00000000E+00
  0.00000000E+00  0.00000000E+00  0.00000000E+00
  0.00000000E+00  0.00000000E+00  0.00000000E+00
  0.00000000E+00  0.00000000E+00  0.00000000E+00
  0.00000000E+00  0.00000000E+00  0.00000000E+00
  0.00000000E+00  0.00000000E+00  0.00000000E+00
  0.00000000E+00  0.00000000E+00  0.00000000E+00
