icsd_412873.cif                         
   1.00000000000000     
     6.7297636310700000   -7.9445577102999998   -0.0041872306866000
     6.7297634941200002    7.9445575950700000   -0.0041873612516700
    -1.8284123832700001   -0.0000002267866302   19.8691256092000010
   Cs   As
    12    44
Direct
  0.4668988089637978  0.2974695432392167  0.8725065036506052
  0.7025308375926755  0.5331011647102954  0.6274935734356148
  0.5331008479566393  0.7025304403314223  0.1274933714372537
  0.2974693666357808  0.4668989634472140  0.3725065772623211
  0.2899419918440103  0.7979221118182593  0.8899600562871299
  0.2020783765729703  0.7100581290747741  0.6100400304399187
  0.7100577170257907  0.2020779629884970  0.1100401682203938
  0.7979217825838774  0.2899418304123458  0.3899598593727802
  0.7436039039119109  0.0315597357032829  0.6192578917186395
  0.9684403225487941  0.2563965127589896  0.8807420178849625
  0.2563961574264155  0.9684405843338766  0.3807419858171173
  0.0315593532779204  0.7436036165751858  0.1192581355922471
  0.6281016215174660  0.6449528747988964  0.8184988207714241
  0.3550473846924902  0.3718986848824599  0.6815011458505396
  0.3718986462810818  0.3550469372688667  0.1815011044389649
  0.6449527242035558  0.6281007792368527  0.3184989955232069
  0.4440337925656550  0.1619559686568621  0.6851595544228957
  0.8380444077815028  0.5559665558026339  0.8148405492733630
  0.5559660035842313  0.8380433888276357  0.3148404916398846
  0.1619560935194073  0.4440336647246852  0.1851595993103743
  0.6012146711099788  0.6635375527579441  0.9427191037047820
  0.3364630501257437  0.3987854043323793  0.5572808386754247
  0.3987850787976228  0.3364623993771900  0.0572807472759678
  0.6635374992845797  0.6012145340728239  0.4427193755949617
  0.6963940366382957  0.8790904871613421  0.7940500619648247
  0.1209096899595252  0.3036063821607229  0.7059497942940922
  0.3036060424273899  0.1209093548023858  0.2059498186573094
  0.8790902659397162  0.6963933147936103  0.2940501645589180
  0.1461847716554914  0.0526650255572676  0.5594568970607625
  0.9473351461118966  0.8538158049904894  0.9405430999227988
  0.8538152918210855  0.9473350911083074  0.4405429193343267
  0.0526645286473411  0.1461846599057210  0.0594569999470593
  0.3893248415578583  0.0693447935292539  0.5677796527762382
  0.9306553317435586  0.6106757425424760  0.9322204627684201
  0.6106751714171352  0.9306549957270818  0.4322202903762147
  0.0693446267839803  0.3893247602718901  0.0677797599991123
  0.2733766864823224  0.1157469117702732  0.0238802558675388
  0.8842530449147006  0.7266230015661321  0.4761197449312888
  0.7266226849328419  0.8842532471347155  0.9761195973128807
  0.1157474256807163  0.2733773616823072  0.5238802280647334
  0.0949089783643799  0.0639787724778316  0.6813589290609983
  0.9360216598779161  0.9050913532018114  0.8186410200056713
  0.9050908174920380  0.9360210072180521  0.3186408294917626
  0.0639783989680325  0.0949088728116152  0.1813590388280701
  0.4727471672128516  0.2565426963954351  0.5063607227027234
  0.7434572429111057  0.5272534353559379  0.9936393109435855
  0.5272533048546535  0.7434572493183893  0.4936394056924698
  0.2565424408086727  0.4727466780018545  0.0063607180698142
  0.6385038453024592  0.0062108913023096  0.8899142619544236
  0.9937895593461832  0.3614963069995696  0.6100854216437384
  0.3614957268865240  0.9937890415530646  0.1100854187415123
  0.0062107963885722  0.6385038133595415  0.3899145445944541
  0.2872933090783434  0.0165401486511243  0.7425468905431956
  0.9834603894558427  0.7127068577271771  0.7574532587810126
  0.7127063206897262  0.9834593605804614  0.2574530471371617
  0.0165400158449387  0.2872932402092729  0.2425469363721291
 
  0.00000000E+00  0.00000000E+00  0.00000000E+00
  0.00000000E+00  0.00000000E+00  0.00000000E+00
  0.00000000E+00  0.00000000E+00  0.00000000E+00
  0.00000000E+00  0.00000000E+00  0.00000000E+00
  0.00000000E+00  0.00000000E+00  0.00000000E+00
  0.00000000E+00  0.00000000E+00  0.00000000E+00
  0.00000000E+00  0.00000000E+00  0.00000000E+00
  0.00000000E+00  0.00000000E+00  0.00000000E+00
  0.00000000E+00  0.00000000E+00  0.00000000E+00
  0.00000000E+00  0.00000000E+00  0.00000000E+00
  0.00000000E+00  0.00000000E+00  0.00000000E+00
  0.00000000E+00  0.00000000E+00  0.00000000E+00
  0.00000000E+00  0.00000000E+00  0.00000000E+00
  0.00000000E+00  0.00000000E+00  0.00000000E+00
  0.00000000E+00  0.00000000E+00  0.00000000E+00
  0.00000000E+00  0.00000000E+00  0.00000000E+00
  0.00000000E+00  0.00000000E+00  0.00000000E+00
  0.00000000E+00  0.00000000E+00  0.00000000E+00
  0.00000000E+00  0.00000000E+00  0.00000000E+00
  0.00000000E+00  0.00000000E+00  0.00000000E+00
  0.00000000E+00  0.00000000E+00  0.00000000E+00
  0.00000000E+00  0.00000000E+00  0.00000000E+00
  0.00000000E+00  0.00000000E+00  0.00000000E+00
  0.00000000E+00  0.00000000E+00  0.00000000E+00
  0.00000000E+00  0.00000000E+00  0.00000000E+00
  0.00000000E+00  0.00000000E+00  0.00000000E+00
  0.00000000E+00  0.00000000E+00  0.00000000E+00
  0.00000000E+00  0.00000000E+00  0.00000000E+00
  0.00000000E+00  0.00000000E+00  0.00000000E+00
  0.00000000E+00  0.00000000E+00  0.00000000E+00
  0.00000000E+00  0.00000000E+00  0.00000000E+00
  0.00000000E+00  0.00000000E+00  0.00000000E+00
  0.00000000E+00  0.00000000E+00  0.00000000E+00
  0.00000000E+00  0.00000000E+00  0.00000000E+00
  0.00000000E+00  0.00000000E+00  0.00000000E+00
  0.00000000E+00  0.00000000E+00  0.00000000E+00
  0.00000000E+00  0.00000000E+00  0.00000000E+00
  0.00000000E+00  0.00000000E+00  0.00000000E+00
  0.00000000E+00  0.00000000E+00  0.00000000E+00
  0.00000000E+00  0.00000000E+00  0.00000000E+00
  0.00000000E+00  0.00000000E+00  0.00000000E+00
  0.00000000E+00  0.00000000E+00  0.00000000E+00
  0.00000000E+00  0.00000000E+00  0.00000000E+00
  0.00000000E+00  0.00000000E+00  0.00000000E+00
  0.00000000E+00  0.00000000E+00  0.00000000E+00
  0.00000000E+00  0.00000000E+00  0.00000000E+00
  0.00000000E+00  0.00000000E+00  0.00000000E+00
  0.00000000E+00  0.00000000E+00  0.00000000E+00
  0.00000000E+00  0.00000000E+00  0.00000000E+00
  0.00000000E+00  0.00000000E+00  0.00000000E+00
  0.00000000E+00  0.00000000E+00  0.00000000E+00
  0.00000000E+00  0.00000000E+00  0.00000000E+00
  0.00000000E+00  0.00000000E+00  0.00000000E+00
  0.00000000E+00  0.00000000E+00  0.00000000E+00
  0.00000000E+00  0.00000000E+00  0.00000000E+00
  0.00000000E+00  0.00000000E+00  0.00000000E+00
