icsd_042461.cif                         
   1.00000000000000     
    11.8310408657000004   -0.0000117802402460    0.0723276779497000
    -0.0000128778270635   12.8620131760999996    0.0000147474272060
    -3.4829769950900000    0.0000096167113738    5.3483300316899998
   Sr   P 
     6    28
Direct
  0.0000000002739569  0.5000000053806062  0.0000000063832246
  0.4999999909191430  0.0000000028667060  0.9999999942001025
  0.6108189106913144  0.3414327123577507  0.4177920858782826
  0.8891811214380212  0.8414325043506850  0.5822076784494499
  0.3891811062265091  0.6585672683933623  0.5822079180844923
  0.1108188702765887  0.1585674820821410  0.4177923287992442
  0.5483834903759615  0.1766604151364390  0.7105004676701441
  0.9516166463066114  0.6766605214513532  0.2894992710237290
  0.4516165059208888  0.8233395907872278  0.2894995269751064
  0.0483833548512962  0.3233394812359194  0.7105007375600323
  0.6401512312141904  0.0825705248430495  0.5610100244484499
  0.8598483548937850  0.5825702424423085  0.4389899725338822
  0.3598487692059251  0.9174294761114012  0.4389899805892412
  0.1401516439275596  0.4174297584981019  0.5610100169384609
  0.7293188408465880  0.2095332587433418  0.0789974775304074
  0.7706811050454689  0.7095334952451751  0.9210021124463381
  0.2706811554665620  0.7904667462758681  0.9210025238726658
  0.2293189043502011  0.2904665070102510  0.0789978889760548
  0.8195378309922106  0.0535257905530955  0.2129558773635836
  0.6804622322225171  0.5535259988450889  0.7870442349843501
  0.1804621519611018  0.9464742116558114  0.7870441218541515
  0.3195377823197134  0.4464740012930264  0.2129557606880397
  0.8614922090716846  0.2742597234021176  0.9662857031451821
  0.6385077881893793  0.7742598161221323  0.0337133548645596
  0.1385077964745065  0.7257402781118785  0.0337143171111336
  0.3614922127761702  0.2257401859620529  0.9662866292404786
  0.6832443213160388  0.5035772713804079  0.1149108599430662
  0.8167557418947311  0.0035771574458252  0.8850901479066593
  0.3167556780913756  0.4964227289676302  0.8850891219913564
  0.1832442524962730  0.9964228434892703  0.1149098664594845
  0.8529503290485110  0.1484598856949333  0.7304978882330317
  0.6470497433558791  0.6484593672609975  0.2695021111552904
  0.1470496776026806  0.8515401116141064  0.2695021348722690
  0.3529502499566561  0.3515406349899379  0.7304978578280625
 
  0.00000000E+00  0.00000000E+00  0.00000000E+00
  0.00000000E+00  0.00000000E+00  0.00000000E+00
  0.00000000E+00  0.00000000E+00  0.00000000E+00
  0.00000000E+00  0.00000000E+00  0.00000000E+00
  0.00000000E+00  0.00000000E+00  0.00000000E+00
  0.00000000E+00  0.00000000E+00  0.00000000E+00
  0.00000000E+00  0.00000000E+00  0.00000000E+00
  0.00000000E+00  0.00000000E+00  0.00000000E+00
  0.00000000E+00  0.00000000E+00  0.00000000E+00
  0.00000000E+00  0.00000000E+00  0.00000000E+00
  0.00000000E+00  0.00000000E+00  0.00000000E+00
  0.00000000E+00  0.00000000E+00  0.00000000E+00
  0.00000000E+00  0.00000000E+00  0.00000000E+00
  0.00000000E+00  0.00000000E+00  0.00000000E+00
  0.00000000E+00  0.00000000E+00  0.00000000E+00
  0.00000000E+00  0.00000000E+00  0.00000000E+00
  0.00000000E+00  0.00000000E+00  0.00000000E+00
  0.00000000E+00  0.00000000E+00  0.00000000E+00
  0.00000000E+00  0.00000000E+00  0.00000000E+00
  0.00000000E+00  0.00000000E+00  0.00000000E+00
  0.00000000E+00  0.00000000E+00  0.00000000E+00
  0.00000000E+00  0.00000000E+00  0.00000000E+00
  0.00000000E+00  0.00000000E+00  0.00000000E+00
  0.00000000E+00  0.00000000E+00  0.00000000E+00
  0.00000000E+00  0.00000000E+00  0.00000000E+00
  0.00000000E+00  0.00000000E+00  0.00000000E+00
  0.00000000E+00  0.00000000E+00  0.00000000E+00
  0.00000000E+00  0.00000000E+00  0.00000000E+00
  0.00000000E+00  0.00000000E+00  0.00000000E+00
  0.00000000E+00  0.00000000E+00  0.00000000E+00
  0.00000000E+00  0.00000000E+00  0.00000000E+00
  0.00000000E+00  0.00000000E+00  0.00000000E+00
  0.00000000E+00  0.00000000E+00  0.00000000E+00
  0.00000000E+00  0.00000000E+00  0.00000000E+00
