icsd_653664.cif                         
   1.00000000000000     
    10.3299978329000002   -0.0000001310071878    0.0095851797008300
    -0.0000002139450570   13.2332738092000000    0.0000024220873992
   -10.3819038566999993    0.0000013538964366    6.5577512948200001
   P    Ba
    28     6
Direct
  0.2795567029548351  0.1824559227756737  0.8330888540221366
  0.7204432787284389  0.6824559475456482  0.6669111398784580
  0.7204432799905547  0.8175440849293381  0.1669111365149050
  0.2795567295139350  0.3175440546446353  0.3330888688360645
  0.4178803220656491  0.0878001628283158  0.0607346401396285
  0.5821197568659500  0.5878001737518943  0.4392654473471751
  0.5821196795223358  0.9121998464314345  0.9392653628966769
  0.4178802587479424  0.4121998249645102  0.5607345692595089
  0.9209682820572951  0.2147731933195374  0.6480546807019465
  0.0790316843328043  0.7147731787856912  0.8519453016597964
  0.0790317122492254  0.7852268070340713  0.3519453178144971
  0.9209683349369726  0.2852268216315395  0.1480547117267577
  0.7827544554676820  0.0639236197509518  0.5967268961553174
  0.2172456198151664  0.5639236172131206  0.9032731315596223
  0.2172455421589206  0.9360763773146275  0.4032730962157203
  0.7827543950112315  0.4360763796416904  0.0967268805052512
  0.0283811825288680  0.2756763240830225  0.8844584727970286
  0.9716186503731947  0.7756763417406560  0.6155413854653133
  0.9716188011760210  0.7243236782452058  0.1155415173144618
  0.0283813711838548  0.2243236542269074  0.3844586306418307
  0.9031254938922046  0.5124246660856286  0.5902482709364207
  0.0968745001870701  0.0124246322842154  0.9097517140638516
  0.0968745130832076  0.4875753300941454  0.4097517391098435
  0.9031254975757008  0.9875753730103156  0.0902482857892011
  0.2534477999918465  0.1523080799780914  0.1018741340343752
  0.7465521353457092  0.6523081000599831  0.3981258480783794
  0.7465521919874192  0.8476919239091885  0.8981258620401746
  0.2534478945963770  0.3476918976851522  0.6018741744417113
  0.0000000028922145  0.4999999995628670  0.0000000054801816
  0.9999999984444656  0.0000000006849419  0.4999999994094395
  0.5921681997204047  0.3474517608940459  0.2050675945090674
  0.4078314204031486  0.8474517710995713  0.2949321643159095
  0.4078317814579080  0.6525482451598563  0.7949323828953254
  0.5921685307414606  0.1525482086335543  0.7050677834440009
 
  0.00000000E+00  0.00000000E+00  0.00000000E+00
  0.00000000E+00  0.00000000E+00  0.00000000E+00
  0.00000000E+00  0.00000000E+00  0.00000000E+00
  0.00000000E+00  0.00000000E+00  0.00000000E+00
  0.00000000E+00  0.00000000E+00  0.00000000E+00
  0.00000000E+00  0.00000000E+00  0.00000000E+00
  0.00000000E+00  0.00000000E+00  0.00000000E+00
  0.00000000E+00  0.00000000E+00  0.00000000E+00
  0.00000000E+00  0.00000000E+00  0.00000000E+00
  0.00000000E+00  0.00000000E+00  0.00000000E+00
  0.00000000E+00  0.00000000E+00  0.00000000E+00
  0.00000000E+00  0.00000000E+00  0.00000000E+00
  0.00000000E+00  0.00000000E+00  0.00000000E+00
  0.00000000E+00  0.00000000E+00  0.00000000E+00
  0.00000000E+00  0.00000000E+00  0.00000000E+00
  0.00000000E+00  0.00000000E+00  0.00000000E+00
  0.00000000E+00  0.00000000E+00  0.00000000E+00
  0.00000000E+00  0.00000000E+00  0.00000000E+00
  0.00000000E+00  0.00000000E+00  0.00000000E+00
  0.00000000E+00  0.00000000E+00  0.00000000E+00
  0.00000000E+00  0.00000000E+00  0.00000000E+00
  0.00000000E+00  0.00000000E+00  0.00000000E+00
  0.00000000E+00  0.00000000E+00  0.00000000E+00
  0.00000000E+00  0.00000000E+00  0.00000000E+00
  0.00000000E+00  0.00000000E+00  0.00000000E+00
  0.00000000E+00  0.00000000E+00  0.00000000E+00
  0.00000000E+00  0.00000000E+00  0.00000000E+00
  0.00000000E+00  0.00000000E+00  0.00000000E+00
  0.00000000E+00  0.00000000E+00  0.00000000E+00
  0.00000000E+00  0.00000000E+00  0.00000000E+00
  0.00000000E+00  0.00000000E+00  0.00000000E+00
  0.00000000E+00  0.00000000E+00  0.00000000E+00
  0.00000000E+00  0.00000000E+00  0.00000000E+00
  0.00000000E+00  0.00000000E+00  0.00000000E+00
