icsd_014009.cif                         
   1.00000000000000     
     6.0581490945800001    0.0000009667845091   -0.0000003986037081
     0.0000009007283454    5.6678252079800000   -0.0000017079341314
    -0.0000006770510928   -0.0000030563461741   10.1489801735000000
   Na   P 
     8     8
Direct
  0.5847951130213573  0.4048981215741065  0.4658354696063114
  0.9152046920590706  0.5951034428617277  0.9658361080098246
  0.0847950824088954  0.0951019012795626  0.5341644922049440
  0.4152048033779536  0.9048967656481324  0.0341638845641299
  0.8644442615479591  0.1344359323406294  0.1681456125988774
  0.6355559831220319  0.8655638537042663  0.6681460453969805
  0.3644439439745923  0.3655641056815497  0.8318544181575263
  0.1355554835671313  0.6344361666188902  0.3318539167415651
  0.6923259890590856  0.6370712011859254  0.2156920278664671
  0.8076740227188210  0.3629289262334936  0.7156920477196280
  0.1923261807624925  0.8629286219112942  0.7843079005953300
  0.3076739638345174  0.1370710607920529  0.2843080416057191
  0.5707154190865538  0.9026320635511880  0.3657864014420227
  0.9292850246629243  0.0973682720943785  0.8657863535610275
  0.0707153442776587  0.5973678453462838  0.6342135822519026
  0.4292846925189338  0.4026317191765045  0.1342136976777439
 
  0.00000000E+00  0.00000000E+00  0.00000000E+00
  0.00000000E+00  0.00000000E+00  0.00000000E+00
  0.00000000E+00  0.00000000E+00  0.00000000E+00
  0.00000000E+00  0.00000000E+00  0.00000000E+00
  0.00000000E+00  0.00000000E+00  0.00000000E+00
  0.00000000E+00  0.00000000E+00  0.00000000E+00
  0.00000000E+00  0.00000000E+00  0.00000000E+00
  0.00000000E+00  0.00000000E+00  0.00000000E+00
  0.00000000E+00  0.00000000E+00  0.00000000E+00
  0.00000000E+00  0.00000000E+00  0.00000000E+00
  0.00000000E+00  0.00000000E+00  0.00000000E+00
  0.00000000E+00  0.00000000E+00  0.00000000E+00
  0.00000000E+00  0.00000000E+00  0.00000000E+00
  0.00000000E+00  0.00000000E+00  0.00000000E+00
  0.00000000E+00  0.00000000E+00  0.00000000E+00
  0.00000000E+00  0.00000000E+00  0.00000000E+00
