icsd_100465.cif                         
   1.00000000000000     
     5.5919338233599998   -0.0000011140343187    0.0073097815338600
    -0.0000009903059624    4.9736217785900001    0.0000037597203181
    -4.8348916168900002    0.0000078185072256    9.0230104474899999
   P    Li
     8     8
Direct
  0.3165170918313152  0.6058458354314880  0.7929166349583383
  0.6834828109429267  0.1058464057044191  0.7070834238560479
  0.6834829386058772  0.3941541528808941  0.2070833921182924
  0.3165171449211215  0.8941536085448192  0.2929165351306793
  0.3029790230191125  0.3436851225664341  0.6117504283322148
  0.6970208484324871  0.8436841324650146  0.8882494504598810
  0.6970210554146377  0.6563148638368830  0.3882495742570953
  0.3029791082002617  0.1563158703349004  0.1117505392295399
  0.2165879289147625  0.1123795448733489  0.8289385753991141
  0.7834118443382749  0.6123801849708528  0.6710612789336992
  0.7834120554296717  0.8876204578116997  0.1710614262350703
  0.2165881808373911  0.3876198295514826  0.3289387211599788
  0.2256360252679812  0.8414581020998497  0.5301202236491136
  0.7743644912225562  0.3414552977979071  0.9698794809523221
  0.7743639948137542  0.1585419153927390  0.4698797597032893
  0.2256354578078685  0.6585446757372608  0.0301205556253308
 
  0.00000000E+00  0.00000000E+00  0.00000000E+00
  0.00000000E+00  0.00000000E+00  0.00000000E+00
  0.00000000E+00  0.00000000E+00  0.00000000E+00
  0.00000000E+00  0.00000000E+00  0.00000000E+00
  0.00000000E+00  0.00000000E+00  0.00000000E+00
  0.00000000E+00  0.00000000E+00  0.00000000E+00
  0.00000000E+00  0.00000000E+00  0.00000000E+00
  0.00000000E+00  0.00000000E+00  0.00000000E+00
  0.00000000E+00  0.00000000E+00  0.00000000E+00
  0.00000000E+00  0.00000000E+00  0.00000000E+00
  0.00000000E+00  0.00000000E+00  0.00000000E+00
  0.00000000E+00  0.00000000E+00  0.00000000E+00
  0.00000000E+00  0.00000000E+00  0.00000000E+00
  0.00000000E+00  0.00000000E+00  0.00000000E+00
  0.00000000E+00  0.00000000E+00  0.00000000E+00
  0.00000000E+00  0.00000000E+00  0.00000000E+00
