icsd_026472.cif                         
   1.00000000000000     
     5.8165557967300003   -0.0000037377693266   -0.0245014439621000
    -0.0000033841546300    5.2859361761599999    0.0000037447966002
    -4.9868927013300004    0.0000098934712429    9.5379067543900007
   As   Li
     8     8
Direct
  0.3025192255788482  0.5756456101157355  0.8024094750295347
  0.6974808473533898  0.0756469381968969  0.6975907651672060
  0.6974807477113458  0.4243543657240636  0.1975905216440026
  0.3025191524231445  0.9243530666455158  0.3024092317988618
  0.2854498961187630  0.3323944588447674  0.5993024282513844
  0.7145499942767159  0.8323939797287778  0.9006976339937367
  0.7145500987953426  0.6676055402391086  0.4006975757793967
  0.2854499972318436  0.1676060288722567  0.0993023535807822
  0.2359816915503359  0.0830789373182199  0.8294376054467349
  0.7640188426529164  0.5830806160680524  0.6705626139473537
  0.7640182884411146  0.9169210795284144  0.1705623790476025
  0.2359812370085521  0.4169194121397766  0.3294374302922165
  0.2283567534871480  0.8310419552402308  0.5534848973480919
  0.7716436245947946  0.3310415698342766  0.9465141437043272
  0.7716432457751310  0.1689580306598941  0.4465150853008026
  0.2283563570006066  0.6689584108440130  0.0534858596679655
 
  0.00000000E+00  0.00000000E+00  0.00000000E+00
  0.00000000E+00  0.00000000E+00  0.00000000E+00
  0.00000000E+00  0.00000000E+00  0.00000000E+00
  0.00000000E+00  0.00000000E+00  0.00000000E+00
  0.00000000E+00  0.00000000E+00  0.00000000E+00
  0.00000000E+00  0.00000000E+00  0.00000000E+00
  0.00000000E+00  0.00000000E+00  0.00000000E+00
  0.00000000E+00  0.00000000E+00  0.00000000E+00
  0.00000000E+00  0.00000000E+00  0.00000000E+00
  0.00000000E+00  0.00000000E+00  0.00000000E+00
  0.00000000E+00  0.00000000E+00  0.00000000E+00
  0.00000000E+00  0.00000000E+00  0.00000000E+00
  0.00000000E+00  0.00000000E+00  0.00000000E+00
  0.00000000E+00  0.00000000E+00  0.00000000E+00
  0.00000000E+00  0.00000000E+00  0.00000000E+00
  0.00000000E+00  0.00000000E+00  0.00000000E+00
