icsd_036591.cif                         
   1.00000000000000     
    11.0622428530000008    0.0000051258725001    0.0000036056783531
     0.0000068371128083   14.7136064987000008    0.0000032381902293
     0.0000037169537152    0.0000024791385851   11.3249333642999996
   K    As
    12    44
Direct
  0.5844123266379100  0.9887718914840349  0.2368743744433814
  0.0844120606726690  0.5112280121886386  0.2631254430546406
  0.4155876749154146  0.5112279113202831  0.7368742737347134
  0.9155880644209233  0.9887718716654916  0.7631252040984222
  0.4155878306115568  0.0112282365503731  0.7631256069930430
  0.9155878362811833  0.4887719858499437  0.7368745801946019
  0.5844125316675672  0.4887720653398873  0.2631258312887041
  0.0844119349303440  0.0112281410038193  0.2368746576254068
  0.7500002727925903  0.7144299549217124  0.9999999956301338
  0.2499998861925121  0.7855701291655706  0.4999999521154308
  0.2499996952604562  0.2855700372652450  0.9999999500169210
  0.7500000922809917  0.2144298891783336  0.5000000557173507
  0.7664819792651798  0.7557459935313489  0.3137298597385794
  0.2664818143080936  0.7442539258185690  0.1862699831535934
  0.2335181312291041  0.7442541192697902  0.8137298601378546
  0.7335180438885160  0.7557459377289959  0.6862700030839051
  0.2335180283857383  0.2442540103137674  0.6862701270629401
  0.7335181660268475  0.2557461060778010  0.8137300699081251
  0.7664819061131922  0.2557458147090585  0.1862701153302879
  0.2664819378044854  0.2442541586495608  0.3137299989310378
  0.5592528044808773  0.7852997004379887  0.3952678466700803
  0.0592527702002243  0.7147003495649429  0.1047323778770632
  0.4407472576577121  0.7147002259627868  0.8952676667101187
  0.9407471341725113  0.7852996057818018  0.6047322738586516
  0.4407471791578175  0.2147002536486937  0.6047321660994385
  0.9407471967190446  0.2852996662682230  0.8952675744081375
  0.5592527358191219  0.2852997279914291  0.1047323924232799
  0.0592528513099353  0.2147004250808919  0.3952677263333015
  0.8937757703577631  0.8696017585170281  0.4206624120965685
  0.3937758251007253  0.6303980302741010  0.0793375924501305
  0.1062241673844966  0.6303982414198117  0.9206624360719786
  0.6062240081420924  0.8696018069862674  0.5793376972239130
  0.1062242172759511  0.1303982595531110  0.5793376296727928
  0.6062241243389863  0.3696019120265106  0.9206624474566780
  0.8937758621693490  0.3696016739885053  0.0793375999631678
  0.3937759563555119  0.1303982471484346  0.4206621877348198
  0.8217678669079476  0.6104604284080111  0.4158173183588829
  0.3217676224668367  0.8895395094077330  0.0841828613420432
  0.1782322781995020  0.8895396658968622  0.9158172969425422
  0.6782323258287590  0.6104603973982918  0.5841828632519963
  0.1782321517743668  0.3895395921190783  0.5841828066057317
  0.6782324084702083  0.1104604819766237  0.9158170314366032
  0.8217676900070785  0.1104602819535287  0.0841826393800744
  0.3217676135301772  0.3895396621682465  0.4158171410479241
  0.0062329857857506  0.6403049069681543  0.5251949725176956
  0.5062329416370872  0.8596946780552983  0.9748047692279300
  0.9937671098851482  0.8596951851671690  0.0251951150644771
  0.4937671849647316  0.6403052783745125  0.4748050537740269
  0.9937669601645851  0.3596950801071870  0.4748050719498735
  0.4937669556796891  0.1403053368493019  0.0251952098168999
  0.0062329071658738  0.1403046898212992  0.9748048200108883
  0.5062328845970328  0.3596947879312324  0.5251950421823750
  0.7500002149249809  0.4784528646596939  0.0000002703097195
  0.2500000499746307  0.0215471825241735  0.4999999772061940
  0.2499998160397681  0.5215471493640678  0.9999998434889648
  0.7499999576684644  0.9784527641668177  0.4999999267759634
 
  0.00000000E+00  0.00000000E+00  0.00000000E+00
  0.00000000E+00  0.00000000E+00  0.00000000E+00
  0.00000000E+00  0.00000000E+00  0.00000000E+00
  0.00000000E+00  0.00000000E+00  0.00000000E+00
  0.00000000E+00  0.00000000E+00  0.00000000E+00
  0.00000000E+00  0.00000000E+00  0.00000000E+00
  0.00000000E+00  0.00000000E+00  0.00000000E+00
  0.00000000E+00  0.00000000E+00  0.00000000E+00
  0.00000000E+00  0.00000000E+00  0.00000000E+00
  0.00000000E+00  0.00000000E+00  0.00000000E+00
  0.00000000E+00  0.00000000E+00  0.00000000E+00
  0.00000000E+00  0.00000000E+00  0.00000000E+00
  0.00000000E+00  0.00000000E+00  0.00000000E+00
  0.00000000E+00  0.00000000E+00  0.00000000E+00
  0.00000000E+00  0.00000000E+00  0.00000000E+00
  0.00000000E+00  0.00000000E+00  0.00000000E+00
  0.00000000E+00  0.00000000E+00  0.00000000E+00
  0.00000000E+00  0.00000000E+00  0.00000000E+00
  0.00000000E+00  0.00000000E+00  0.00000000E+00
  0.00000000E+00  0.00000000E+00  0.00000000E+00
  0.00000000E+00  0.00000000E+00  0.00000000E+00
  0.00000000E+00  0.00000000E+00  0.00000000E+00
  0.00000000E+00  0.00000000E+00  0.00000000E+00
  0.00000000E+00  0.00000000E+00  0.00000000E+00
  0.00000000E+00  0.00000000E+00  0.00000000E+00
  0.00000000E+00  0.00000000E+00  0.00000000E+00
  0.00000000E+00  0.00000000E+00  0.00000000E+00
  0.00000000E+00  0.00000000E+00  0.00000000E+00
  0.00000000E+00  0.00000000E+00  0.00000000E+00
  0.00000000E+00  0.00000000E+00  0.00000000E+00
  0.00000000E+00  0.00000000E+00  0.00000000E+00
  0.00000000E+00  0.00000000E+00  0.00000000E+00
  0.00000000E+00  0.00000000E+00  0.00000000E+00
  0.00000000E+00  0.00000000E+00  0.00000000E+00
  0.00000000E+00  0.00000000E+00  0.00000000E+00
  0.00000000E+00  0.00000000E+00  0.00000000E+00
  0.00000000E+00  0.00000000E+00  0.00000000E+00
  0.00000000E+00  0.00000000E+00  0.00000000E+00
  0.00000000E+00  0.00000000E+00  0.00000000E+00
  0.00000000E+00  0.00000000E+00  0.00000000E+00
  0.00000000E+00  0.00000000E+00  0.00000000E+00
  0.00000000E+00  0.00000000E+00  0.00000000E+00
  0.00000000E+00  0.00000000E+00  0.00000000E+00
  0.00000000E+00  0.00000000E+00  0.00000000E+00
  0.00000000E+00  0.00000000E+00  0.00000000E+00
  0.00000000E+00  0.00000000E+00  0.00000000E+00
  0.00000000E+00  0.00000000E+00  0.00000000E+00
  0.00000000E+00  0.00000000E+00  0.00000000E+00
  0.00000000E+00  0.00000000E+00  0.00000000E+00
  0.00000000E+00  0.00000000E+00  0.00000000E+00
  0.00000000E+00  0.00000000E+00  0.00000000E+00
  0.00000000E+00  0.00000000E+00  0.00000000E+00
  0.00000000E+00  0.00000000E+00  0.00000000E+00
  0.00000000E+00  0.00000000E+00  0.00000000E+00
  0.00000000E+00  0.00000000E+00  0.00000000E+00
  0.00000000E+00  0.00000000E+00  0.00000000E+00
