icsd_055065.cif                         
   1.00000000000000     
    14.4242365018999994    0.0000047573377571   -0.0469758692846000
     0.0000021683957060    7.3701075506600002    0.0000001210455105
    -5.3652611148000000   -0.0000016003441265   12.4781542119999997
   K    Bi
    16    16
Direct
  0.1183673151790785  0.3796962698123494  0.6446457380679647
  0.8816329285432403  0.8796954723718216  0.8553547211784718
  0.8816326173633655  0.6203036843135123  0.3553541674799590
  0.1183671459258377  0.1203044746221664  0.1446453761106170
  0.3963378834458098  0.1992633886630628  0.5377898160527081
  0.6036614989705313  0.6992638525609109  0.9622100008298347
  0.6036621620828555  0.8007363257604112  0.4622101715841680
  0.3963384337301648  0.3007358823000175  0.0377900347717031
  0.6549728135643704  0.4282063522807036  0.6934909093029518
  0.3450270161471849  0.9282066219886289  0.8065088960938454
  0.3450270505474009  0.5717934248542349  0.3065090583273218
  0.6549731323618815  0.0717931532059168  0.1934911428808732
  0.8471336374795158  0.1379409308927109  0.5548187635895374
  0.1528665968483836  0.6379403477280547  0.9451816474328609
  0.1528664634590200  0.8620587406497791  0.4451814357817980
  0.8471332899648942  0.3620593038698630  0.0548181349968928
  0.0724227107287163  0.8677992878538845  0.6799565040248723
  0.9275771459141424  0.3677991957930047  0.8200435586347723
  0.9275777099782729  0.1322014209104836  0.3200441222771104
  0.0724224357345449  0.6322016336916860  0.1799558438660327
  0.1132144986558643  0.1247742137158951  0.8707249038658844
  0.8867855754954661  0.6247744438488425  0.6292753829916222
  0.8867852674239245  0.8752266625309986  0.1292753730120353
  0.1132146273054460  0.3752264340430784  0.3707242316376380
  0.3906017392848682  0.4366452741711200  0.7709961916835795
  0.6093984584804133  0.9366452475989036  0.7290039118618026
  0.6093983028024397  0.5633543781220993  0.2290039044833776
  0.3906015243776508  0.0633544283649172  0.2709960248199721
  0.5780624878830096  0.2045829502997449  0.8890773312382478
  0.4219377035720129  0.7045829994988324  0.6109227795282095
  0.4219374906314926  0.7954166240126384  0.1109226496066498
  0.5780623361182364  0.2954165796697268  0.3890772719867002
 
  0.00000000E+00  0.00000000E+00  0.00000000E+00
  0.00000000E+00  0.00000000E+00  0.00000000E+00
  0.00000000E+00  0.00000000E+00  0.00000000E+00
  0.00000000E+00  0.00000000E+00  0.00000000E+00
  0.00000000E+00  0.00000000E+00  0.00000000E+00
  0.00000000E+00  0.00000000E+00  0.00000000E+00
  0.00000000E+00  0.00000000E+00  0.00000000E+00
  0.00000000E+00  0.00000000E+00  0.00000000E+00
  0.00000000E+00  0.00000000E+00  0.00000000E+00
  0.00000000E+00  0.00000000E+00  0.00000000E+00
  0.00000000E+00  0.00000000E+00  0.00000000E+00
  0.00000000E+00  0.00000000E+00  0.00000000E+00
  0.00000000E+00  0.00000000E+00  0.00000000E+00
  0.00000000E+00  0.00000000E+00  0.00000000E+00
  0.00000000E+00  0.00000000E+00  0.00000000E+00
  0.00000000E+00  0.00000000E+00  0.00000000E+00
  0.00000000E+00  0.00000000E+00  0.00000000E+00
  0.00000000E+00  0.00000000E+00  0.00000000E+00
  0.00000000E+00  0.00000000E+00  0.00000000E+00
  0.00000000E+00  0.00000000E+00  0.00000000E+00
  0.00000000E+00  0.00000000E+00  0.00000000E+00
  0.00000000E+00  0.00000000E+00  0.00000000E+00
  0.00000000E+00  0.00000000E+00  0.00000000E+00
  0.00000000E+00  0.00000000E+00  0.00000000E+00
  0.00000000E+00  0.00000000E+00  0.00000000E+00
  0.00000000E+00  0.00000000E+00  0.00000000E+00
  0.00000000E+00  0.00000000E+00  0.00000000E+00
  0.00000000E+00  0.00000000E+00  0.00000000E+00
  0.00000000E+00  0.00000000E+00  0.00000000E+00
  0.00000000E+00  0.00000000E+00  0.00000000E+00
  0.00000000E+00  0.00000000E+00  0.00000000E+00
  0.00000000E+00  0.00000000E+00  0.00000000E+00
