icsd_191491.cif                         
   1.00000000000000     
    -0.0000014494462716    4.2192986145400004    4.2193255941199999
     4.2192890513499997    0.0000022149757248    4.2193219288900004
     4.2192915938800004    4.2192974928400000   -0.0000003281346462
   Sb   Rb
     1     1
Direct
  0.2499999729138693  0.2500000208568878  0.2500000012472086
  0.0000000270861307  0.9999999791431122  0.9999999987527914
 
  0.00000000E+00  0.00000000E+00  0.00000000E+00
  0.00000000E+00  0.00000000E+00  0.00000000E+00
