icsd_055067.cif                         
   1.00000000000000     
    15.6326566260999993   -0.0002332789877990   -0.0867182168960000
    -0.0001173602749150    7.8495650958200001   -0.0000604127607399
    -5.7817343523000000   -0.0000169461026971   13.4545226117999999
   Cs   Bi
    16    16
Direct
  0.1296504114753745  0.3856103800276287  0.6476185070793221
  0.8703548170081348  0.8855918839261108  0.8523800819611580
  0.8703491520323112  0.6143900403281535  0.3523810512755929
  0.1296455031499235  0.1144075743332138  0.1476198740889458
  0.3888554180102091  0.1930182955033644  0.5297634828173159
  0.6111530774851346  0.6930377735564193  0.9702396895900165
  0.6111435472071989  0.8069809748452528  0.4702369667180193
  0.3888477531364316  0.3069629154685458  0.0297609806269463
  0.6554489720139216  0.4189383000301206  0.6847908451964457
  0.3445632209939902  0.9189123764353369  0.8152098861057695
  0.3445506388114765  0.5810598070702255  0.3152084223838898
  0.6554370449190188  0.0810889905477481  0.1847902736779972
  0.8545121926495440  0.1462771969603622  0.5448639376794873
  0.1454898161698850  0.6463095685377027  0.9551388916760288
  0.1454871508615057  0.8537214594711529  0.4551361471353275
  0.8545104757856947  0.3536907537895431  0.0448606125210489
  0.0688800766444118  0.8665098012375978  0.6908336126575563
  0.9311223450985509  0.3665099301544856  0.8091588528756972
  0.9311196778687432  0.1334896180677489  0.3091658366784102
  0.0688780463788063  0.6334907369065306  0.1908416314023142
  0.0976935066598372  0.1256531839490478  0.8583266784624684
  0.9023251352937365  0.6256589407357254  0.6416744481825845
  0.9023070476689199  0.8743463713599837  0.1416731653245407
  0.0976747707466714  0.3743424442939514  0.3583263374587347
  0.4058384046146841  0.4353399398244235  0.7709740369459510
  0.5941590794470599  0.9353355549571987  0.7290212802207634
  0.5941615364911428  0.5646591300292627  0.2290259753196580
  0.4058410381605668  0.0646656287971226  0.2709785493004233
  0.5722496843317231  0.1979492996803600  0.8754504074186258
  0.4277675658598952  0.6979470151824856  0.6245620652777433
  0.4277504922741144  0.8020512843486998  0.1245493744645856
  0.5722324007513819  0.3020528296444809  0.3754380974766391
 
  0.00000000E+00  0.00000000E+00  0.00000000E+00
  0.00000000E+00  0.00000000E+00  0.00000000E+00
  0.00000000E+00  0.00000000E+00  0.00000000E+00
  0.00000000E+00  0.00000000E+00  0.00000000E+00
  0.00000000E+00  0.00000000E+00  0.00000000E+00
  0.00000000E+00  0.00000000E+00  0.00000000E+00
  0.00000000E+00  0.00000000E+00  0.00000000E+00
  0.00000000E+00  0.00000000E+00  0.00000000E+00
  0.00000000E+00  0.00000000E+00  0.00000000E+00
  0.00000000E+00  0.00000000E+00  0.00000000E+00
  0.00000000E+00  0.00000000E+00  0.00000000E+00
  0.00000000E+00  0.00000000E+00  0.00000000E+00
  0.00000000E+00  0.00000000E+00  0.00000000E+00
  0.00000000E+00  0.00000000E+00  0.00000000E+00
  0.00000000E+00  0.00000000E+00  0.00000000E+00
  0.00000000E+00  0.00000000E+00  0.00000000E+00
  0.00000000E+00  0.00000000E+00  0.00000000E+00
  0.00000000E+00  0.00000000E+00  0.00000000E+00
  0.00000000E+00  0.00000000E+00  0.00000000E+00
  0.00000000E+00  0.00000000E+00  0.00000000E+00
  0.00000000E+00  0.00000000E+00  0.00000000E+00
  0.00000000E+00  0.00000000E+00  0.00000000E+00
  0.00000000E+00  0.00000000E+00  0.00000000E+00
  0.00000000E+00  0.00000000E+00  0.00000000E+00
  0.00000000E+00  0.00000000E+00  0.00000000E+00
  0.00000000E+00  0.00000000E+00  0.00000000E+00
  0.00000000E+00  0.00000000E+00  0.00000000E+00
  0.00000000E+00  0.00000000E+00  0.00000000E+00
  0.00000000E+00  0.00000000E+00  0.00000000E+00
  0.00000000E+00  0.00000000E+00  0.00000000E+00
  0.00000000E+00  0.00000000E+00  0.00000000E+00
  0.00000000E+00  0.00000000E+00  0.00000000E+00
