icsd_260098.cif                         
   1.00000000000000     
    11.6265935096999993   -0.0000000100284636   -0.0314207755882000
     0.0000000497041991   26.6952499695000007    0.0000000911901628
    -5.0641452991399998    0.0000001565509200   26.0704861504999990
   Sb   Cd
   120   156
Direct
  0.1001907599735929  0.2478093456980730  0.1943319604741092
  0.6001907946442842  0.7521906449118632  0.6943319661507417
  0.5989230333991316  0.4982284931244223  0.1947917244804600
  0.0989230644490746  0.5017715216758560  0.6947917188236801
  0.0962668113808576  0.2545077499489921  0.8625269331414032
  0.5962667876266536  0.7454922515848992  0.3625269204527726
  0.0960170297878875  0.5017859078463758  0.3603222224431590
  0.5960170507946145  0.4982140907415840  0.8603222158057733
  0.5986722398853388  0.2523661563457580  0.0268059290462617
  0.0986722191443974  0.7476338442758674  0.5268059436509205
  0.6010685934065663  0.9998409562830446  0.8592385738718704
  0.1010685638306086  0.0001590294214182  0.3592385775696485
  0.5978683846563015  0.5038850588006554  0.5295360031685377
  0.0978684053292938  0.4961149483063565  0.0295359932383548
  0.0964621747077885  0.0019560908445868  0.0270731947323739
  0.5964621495742932  0.9980439137944828  0.5270731808935523
  0.6004707103157543  0.7504938695119705  0.0264443973332433
  0.1004707172708876  0.2495061481829666  0.5264444047117038
  0.0943315959253113  0.7607836649140935  0.8582464587070220
  0.5943315727071123  0.2392163362667219  0.3582464618535610
  0.5934033231050648  0.0107455986240339  0.1914778602487743
  0.0934033316739402  0.9892544107057546  0.6914778598894387
  0.8766260837447746  0.5043112468814286  0.2883062578948810
  0.3766260997196298  0.4956887490824897  0.7883062481481815
  0.8807005765874791  0.0015131270751070  0.9539461621466216
  0.3807005290070222  0.9984868652883208  0.4539461532009312
  0.8820652452799607  0.2478651873282445  0.1230681501143067
  0.3820652852514712  0.7521348125592695  0.6230681451569779
  0.8780027143188534  0.7523837019523683  0.7826056436083419
  0.3780026978241153  0.2476163227677262  0.2826056557034917
  0.3834054698066112  0.5001960809828745  0.1215793802033502
  0.8834054682701336  0.4998039228306297  0.6215793738901851
  0.3833173058641322  0.2513009414009488  0.9532569145194927
  0.8833172962140878  0.7486990642421389  0.4532569176589547
  0.3776396303137020  0.0027655809928717  0.1151447540902026
  0.8776396261632797  0.9972344179806356  0.6151447365301408
  0.3793191992302027  0.5032447395278297  0.4546667041997594
  0.8793192087586661  0.4967552653476375  0.9546667061365852
  0.8777051289345792  0.2541329321868560  0.7878151023806623
  0.3777051088544781  0.7458670452613561  0.2878150850647572
  0.3768435179673020  0.7568459081372723  0.9582450592415483
  0.8768435387885631  0.2431540689667457  0.4582450509211426
  0.8748952511021599  0.7475256704734363  0.1199775499801632
  0.3748952703028365  0.2524743247665029  0.6199775510196801
  0.3771739844093815  0.9927227946567712  0.7910386250520247
  0.8771739534043235  0.0072772179672000  0.2910386390663007
  0.0934402476710190  0.7483290170801880  0.1928541614681052
  0.5934402639873753  0.2516709851810717  0.6928541658268514
  0.3094344807730423  0.5873767283084916  0.2756263639629211
  0.8094345346005838  0.4126232753972658  0.7756263487803992
  0.1675323350681808  0.4129552512296115  0.2084895274586955
  0.6675323556706729  0.5870447457989840  0.7084895339680841
  0.9939843446944394  0.1785765728821289  0.9912573907534252
  0.4939843406902611  0.8214234452749949  0.4912573953924593
  0.8136893354904089  0.8405698488120237  0.9433499543859085
  0.3136893083668042  0.1594301634102138  0.4433499444431916
  0.8201572198795546  0.4057142229199187  0.1147703603670109
  0.3201572293493555  0.5942857882130141  0.6147703428535678
  0.3089793665563505  0.1613038021480975  0.1055701151201021
  0.8089793502984364  0.8386961942355882  0.6055701292853684
  0.9894993565320149  0.5773241805735054  0.4910146150303305
  0.4894993756434474  0.4226758259328918  0.9910146329492022
  0.6652992247307665  0.5898526659469780  0.3693739654426693
  0.1652992089036331  0.4101473224997036  0.8693739554070063
  0.4861771049518424  0.3238234291172546  0.1589999024563582
  0.9861771188001427  0.6761765730377931  0.6589999110145612
  0.8145416679033133  0.3395033968633854  0.2778668385243321
  0.3145416683929909  0.6604965929283750  0.7778668350545388
  0.8119012051631813  0.9117260931797446  0.1094526722487714
  0.3119012307648035  0.0882739131628654  0.6094526696962177
  0.4868252892721969  0.4279623982458673  0.3253762984332127
  0.9868253079718130  0.5720376078157017  0.8253763024700973
  0.4877350447796687  0.8271595826038762  0.8271929464360994
  0.9877350768816484  0.1728404038555311  0.3271929629424477
  0.9913862308218029  0.5704328686261633  0.1564044384975816
  0.4913861968101685  0.4295671214875441  0.6564044442689649
  0.4899379427347839  0.9284358101153671  0.9933132816223917
  0.9899379511472191  0.0715641847697981  0.4933133053162351
  0.6676717245742978  0.5823528743652275  0.0479589433873571
  0.1676717205284319  0.4176471330358282  0.5479589552074486
  0.1744801667721632  0.3383321638610468  0.0419128559474231
  0.6744802017641049  0.6616678398704252  0.5419128575417034
  0.7982231813592904  0.4149354923937096  0.4438815296029617
  0.2982231712966552  0.5850645046534098  0.9438815199285671
  0.9876444011742436  0.0775570649882411  0.1576353426901349
  0.4876444351351168  0.9224429399222416  0.6576353553708785
  0.9903633621789609  0.6736226641908729  0.3212770609737561
  0.4903633915091490  0.3263773351853985  0.8212770864683847
  0.3140911151186430  0.0888816958989409  0.9389975387792688
  0.8140911238500621  0.9111183015173836  0.4389975244628843
  0.1872520484506097  0.3401844600132549  0.3675571524501038
  0.6872520865147891  0.6598155487541320  0.8675571481547237
  0.9887460591100208  0.0737221095287026  0.8236245424510074
  0.4887460314119707  0.9262778995339644  0.3236245240190740
  0.6594419366910884  0.1637800001121903  0.2027980734638462
  0.1594419363111541  0.8362200111308127  0.7027980987820399
  0.1663837220554498  0.8378717901498902  0.0406540019198474
  0.6663837103750652  0.1621282197081300  0.5406540023787088
  0.2978139591365547  0.1650902094971727  0.7759710661560817
  0.7978139030067624  0.8349097763285158  0.2759710481583326
  0.3208675843726638  0.6557806032666420  0.4487979015596792
  0.8208675956291174  0.3442193927328248  0.9487979273901530
  0.4875728821684859  0.8222036841196640  0.1574986503374447
  0.9875728876463938  0.1777963236019673  0.6574986595129673
  0.9882341316688823  0.6775551615791429  0.9907066320060807
  0.4882341553368619  0.3224448446024581  0.4907066342878323
  0.6719599529195222  0.1680445873436867  0.8816734817434480
  0.1719599370034430  0.8319553970620035  0.3816734776201827
  0.3107316354743404  0.6636883056959775  0.1080498576856854
  0.8107316106740470  0.3363116891748703  0.6080498604510041
  0.6575585634400269  0.6600737960776755  0.2019898719555542
  0.1575586250058407  0.3399261838531586  0.7019898938881113
  0.6621608747569638  0.0897993996246669  0.0357090467377361
  0.1621608510105546  0.9102006048667377  0.5357090684648469
  0.1863474901548017  0.9094186538707731  0.2003592580237239
  0.6863475378581754  0.0905813737689272  0.7003592619086803
  0.1675972514079191  0.9144465106382569  0.8742544882607177
  0.6675972120431908  0.0855534876297739  0.3742544757416439
  0.3129176859864131  0.0896311741670885  0.2769728922180761
  0.8129176637860027  0.9103688352320916  0.7769729044028608
  0.0589520790781890  0.3289024370093188  0.2576925399642462
  0.5589520715611584  0.6710975421342411  0.7576925220229853
  0.6049146097807565  0.3993079265767321  0.2362406121496434
  0.1049145641666414  0.6006920726636977  0.7362405932991720
  0.5562441345783853  0.5767752299199387  0.2609916443729858
  0.0562442021539766  0.4232247516139580  0.7609916161568790
  0.1166980255525871  0.1535347469253097  0.9043647557146670
  0.6166980583740056  0.8464652274736011  0.4043647832839525
  0.0567134258174349  0.9208014501180344  0.0908972554231013
  0.5567134030517096  0.0791985503806245  0.5908972409880988
  0.2653418955685112  0.4779206922586781  0.2972330136611347
  0.7653419479013266  0.5220793096876548  0.7972329896170862
  0.5632025530784261  0.0788662712453529  0.9260633678158925
  0.0632025580207412  0.9211336567969255  0.4260633825649194
  0.1091840494664638  0.6026324438925954  0.4032195719103342
  0.6091840710915122  0.3973675790178746  0.9032195794955911
  0.6059682385596687  0.8500782057921867  0.0681917247148220
  0.1059682662877748  0.1499218207602695  0.5681917293306071
  0.5589328632240651  0.1736169275311923  0.0935800099110011
  0.0589329239755614  0.8263830758061061  0.5935800673606266
  0.1021759974413854  0.1016822204900976  0.0667575341135986
  0.6021759625239653  0.8983177528470137  0.5667575527786397
  0.2647422344553760  0.2696612815944448  0.1295387678080218
  0.7647422172206291  0.7303387306056024  0.6295387725653896
  0.2660949226195370  0.9800025616579475  0.9654241430571204
  0.7660949602858622  0.0199974064021973  0.4654241953421518
  0.1043485282282575  0.6457312614795612  0.2320131545564692
  0.6043486381538941  0.3542687378588241  0.7320131450995220
  0.9215030353393701  0.4266484126512609  0.2218294411360802
  0.4215030037682439  0.5733515832755884  0.7218294274802375
  0.3686727129353571  0.3508186832254623  0.2451883454514245
  0.8686726839472811  0.6491813280922614  0.7451883313394418
  0.0682534236300398  0.3337459107845859  0.9346605408618416
  0.5682534290032919  0.6662540987794046  0.4346605583602994
  0.7595167943194525  0.0258297410942916  0.1232988081056234
  0.2595169174392709  0.9741702639016054  0.6232988135457518
  0.8689906112546808  0.6505146818124743  0.4105908348647915
  0.3689906255066830  0.3494853544129271  0.9105908420864495
  0.0631261947316304  0.8354563415609277  0.9332115910728120
  0.5631261765053139  0.1645436420393906  0.4332115899616937
  0.8850683128929759  0.1018212911359484  0.9169718098592341
  0.3850684162308653  0.8981786682604067  0.4169718104092510
  0.7530726828203171  0.5325522981643189  0.4634609810077492
  0.2530726335150035  0.4674477165743625  0.9634609377083905
  0.5675231972833572  0.5831194392525347  0.6004646369258637
  0.0675231523241990  0.4168806119525925  0.1004646245660297
  0.7714964983669645  0.5154603987359039  0.1336210908582913
  0.2714965222597598  0.4845396588376190  0.6336210088788832
  0.7639679626815550  0.7311927591943004  0.9602094471893565
  0.2639679840184286  0.2688072792209510  0.4602094660748151
  0.2626075238143386  0.7735980583204878  0.7903890016479806
  0.7626074826493792  0.2264018794948299  0.2903890308179200
  0.7763202679667174  0.2344472862708002  0.9685016984419406
  0.2763202955942887  0.7655527147393357  0.4685017548369572
  0.3693339257203050  0.8993744880436481  0.0782220102159386
  0.8693339415639940  0.1006255445077429  0.5782220199674413
  0.6104324764113045  0.9022253302475463  0.9055741547232969
  0.1104325097965955  0.0977746377881274  0.4055742030165348
  0.2199188371553618  0.5212446576538312  0.1862051690656372
  0.7199187462613281  0.4787553485276561  0.6862051513818983
  0.4173278676318475  0.5806511352162786  0.3824422464281554
  0.9173278312987776  0.4193488678926727  0.8824422340224842
  0.6115513107632395  0.3494097275685490  0.0725085563896855
  0.1115512992895518  0.6505902736225693  0.5725085533331153
  0.8616518851612653  0.1516533387758301  0.0748749079117843
  0.3616517987120886  0.8483466509334008  0.5748749017305883
  0.4134000003808680  0.1715563648205602  0.8851936259416746
  0.9134000140972134  0.8284436122299184  0.3851936040893449
  0.7100142879579181  0.9808944621919551  0.0151227112875603
  0.2100143395941103  0.0191055175273860  0.5151227437988055
  0.7098296502209536  0.4815089081456492  0.3524184877895351
  0.2098296216356985  0.5184910821986506  0.8524184458467019
  0.2203250496692064  0.2299782784134621  0.0181988075540431
  0.7203250773443557  0.7700217276722796  0.5181988057498188
  0.8642406190254093  0.6018511769441020  0.2401593090177556
  0.3642406747466751  0.3981488015112191  0.7401593073250083
  0.4112431833043573  0.6673913001672460  0.2166221901921546
  0.9112432259007264  0.3326086616182238  0.7166221915599209
  0.9160301077857014  0.8248389998181125  0.0513691823245352
  0.4160301301200633  0.1751610110658746  0.5513691777622896
  0.1073002524694573  0.1501410553235516  0.2383029308324325
  0.6073002402190895  0.8498589304348414  0.7383029397355330
  0.3723263662986938  0.8560898700368043  0.9158987316541172
  0.8723263770533123  0.1439100806806124  0.4158987591386918
  0.7089182308792701  0.2733063781897087  0.1819956494222978
  0.2089181401244389  0.7266936290682366  0.6819955978569254
  0.4151062145889099  0.0837532486146984  0.0475227998031826
  0.9151061651738246  0.9162466847278310  0.5475228365695486
  0.5587094335188212  0.6717380428452060  0.0926438683623800
  0.0587094883706811  0.3282619105004727  0.5926439024898187
  0.7340371805955712  0.4669512074910003  0.0264353889231757
  0.2340372011497749  0.5330488467909902  0.5264353830018678
  0.6176917909079762  0.4027840094784523  0.5712650109515138
  0.1176918091517294  0.5972159871263187  0.0712649869938389
  0.7286820213962955  0.7826382469456732  0.8499102523643742
  0.2286819942473386  0.2173618034978588  0.3499103041768947
  0.7659912415575931  0.0191797077993314  0.7935867384528876
  0.2659912199668355  0.9808202963324248  0.2935867394390712
  0.5643167208379865  0.0857231344632936  0.2672234414082411
  0.0643167323756444  0.9142769057135069  0.7672234180926054
  0.8766743581894332  0.5995145961354140  0.5832914468073156
  0.3766742886031693  0.4004854157083457  0.0832914401952749
  0.2094809366100421  0.2324795330040814  0.6855918798555223
  0.7094809026625555  0.7675204404538434  0.1855918858015073
  0.9180817570411222  0.9240122997017366  0.8854617235500797
  0.4180817259611302  0.0759876891588718  0.3854617486387042
  0.2509850400316296  0.2830033329359622  0.7959489447570505
  0.7509850047761404  0.7169966481873047  0.2959489509673361
  0.2643507315536979  0.7743223461267803  0.1322408326794005
  0.7643507463041743  0.2256776575784727  0.6322408152290606
  0.2338868824038869  0.7176712149005198  0.3606726354167833
  0.7338868890852481  0.2823287960253325  0.8606726226527002
  0.2107931554497426  0.0224258995376232  0.8547883561969485
  0.7107931352162637  0.9775741147768144  0.3547883828361265
  0.3609936392631070  0.8956485003210304  0.7426852820942926
  0.8609936307784452  0.1043515340148673  0.2426853016028048
  0.4095670939450144  0.1678648519603740  0.2127627343468035
  0.9095671292695755  0.8321351994197173  0.7127627573785276
  0.8827094162608802  0.6467226976780367  0.0817260224156016
  0.3827093211093100  0.3532773218126337  0.5817260338304635
  0.2093600216740228  0.7291558631956860  0.0221402096484837
  0.7093600912688203  0.2708441334684437  0.5221402148354315
  0.4094000245777849  0.5800418867957617  0.0531315926935747
  0.9094000742126696  0.4199581087273430  0.5531316962663482
  0.2286576247411389  0.0331258019196881  0.1824251276595561
  0.7286577158044878  0.9668741934442195  0.6824251348745847
  0.9295255974851884  0.3252146307600228  0.0567681820540926
  0.4295256170542885  0.6747853857935624  0.5567681634210047
  0.4589205501458480  0.9194593000635223  0.2054594115248776
  0.9589206045346614  0.0805406992249473  0.7054594005180874
  0.0274501390928492  0.7790291247003864  0.2917380144488035
  0.5274501734947066  0.2209708770471153  0.7917380311090767
  0.5381275694846224  0.8312257262443339  0.2740459630864933
  0.0381276393550607  0.1687742624131232  0.7740459461523983
  0.7573429162588710  0.9260976083992247  0.2163107872806549
  0.2573431641355626  0.0739023358664781  0.7163107349475197
  0.9978187659624140  0.9782093276156942  0.2087839648576093
  0.4978192622697790  0.0217905926673012  0.7087840747127743
  0.9635005318255239  0.8510650566685314  0.1982585708701521
  0.4635006760780129  0.1489349465516412  0.6982585784763131
  0.2704695874398837  0.8481576140036822  0.2912018165609709
  0.7704696322244402  0.1518423611047552  0.7912018102444662
  0.5386946562215869  0.4175824219413258  0.4413842309835658
  0.0386945804716845  0.5824176257462241  0.9413841690559508
  0.9592802558345284  0.6698214031925076  0.8725869716217716
  0.4592801709170118  0.3301786066873049  0.3725870006050371
  0.0257063096756553  0.4727984723368337  0.4589431895813121
  0.5257062372941732  0.5272015299512773  0.9589431575042013
  0.9950187024784398  0.2732134436548463  0.3751949883199615
  0.4950189135729133  0.7267865628345547  0.8751950851956920
  0.9663471104619745  0.3995954291878121  0.3669162774929617
  0.4663471598133953  0.6004045959165580  0.8669162488510906
  0.7562115119740653  0.3243679029503497  0.3837637328039989
  0.2562116156021617  0.6756321165043033  0.8837636952465573
  0.7693469332841900  0.5979914152048167  0.9580228397588613
  0.2693469676376026  0.4020086186219416  0.4580228718364978
 
  0.00000000E+00  0.00000000E+00  0.00000000E+00
  0.00000000E+00  0.00000000E+00  0.00000000E+00
  0.00000000E+00  0.00000000E+00  0.00000000E+00
  0.00000000E+00  0.00000000E+00  0.00000000E+00
  0.00000000E+00  0.00000000E+00  0.00000000E+00
  0.00000000E+00  0.00000000E+00  0.00000000E+00
  0.00000000E+00  0.00000000E+00  0.00000000E+00
  0.00000000E+00  0.00000000E+00  0.00000000E+00
  0.00000000E+00  0.00000000E+00  0.00000000E+00
  0.00000000E+00  0.00000000E+00  0.00000000E+00
  0.00000000E+00  0.00000000E+00  0.00000000E+00
  0.00000000E+00  0.00000000E+00  0.00000000E+00
  0.00000000E+00  0.00000000E+00  0.00000000E+00
  0.00000000E+00  0.00000000E+00  0.00000000E+00
  0.00000000E+00  0.00000000E+00  0.00000000E+00
  0.00000000E+00  0.00000000E+00  0.00000000E+00
  0.00000000E+00  0.00000000E+00  0.00000000E+00
  0.00000000E+00  0.00000000E+00  0.00000000E+00
  0.00000000E+00  0.00000000E+00  0.00000000E+00
  0.00000000E+00  0.00000000E+00  0.00000000E+00
  0.00000000E+00  0.00000000E+00  0.00000000E+00
  0.00000000E+00  0.00000000E+00  0.00000000E+00
  0.00000000E+00  0.00000000E+00  0.00000000E+00
  0.00000000E+00  0.00000000E+00  0.00000000E+00
  0.00000000E+00  0.00000000E+00  0.00000000E+00
  0.00000000E+00  0.00000000E+00  0.00000000E+00
  0.00000000E+00  0.00000000E+00  0.00000000E+00
  0.00000000E+00  0.00000000E+00  0.00000000E+00
  0.00000000E+00  0.00000000E+00  0.00000000E+00
  0.00000000E+00  0.00000000E+00  0.00000000E+00
  0.00000000E+00  0.00000000E+00  0.00000000E+00
  0.00000000E+00  0.00000000E+00  0.00000000E+00
  0.00000000E+00  0.00000000E+00  0.00000000E+00
  0.00000000E+00  0.00000000E+00  0.00000000E+00
  0.00000000E+00  0.00000000E+00  0.00000000E+00
  0.00000000E+00  0.00000000E+00  0.00000000E+00
  0.00000000E+00  0.00000000E+00  0.00000000E+00
  0.00000000E+00  0.00000000E+00  0.00000000E+00
  0.00000000E+00  0.00000000E+00  0.00000000E+00
  0.00000000E+00  0.00000000E+00  0.00000000E+00
  0.00000000E+00  0.00000000E+00  0.00000000E+00
  0.00000000E+00  0.00000000E+00  0.00000000E+00
  0.00000000E+00  0.00000000E+00  0.00000000E+00
  0.00000000E+00  0.00000000E+00  0.00000000E+00
  0.00000000E+00  0.00000000E+00  0.00000000E+00
  0.00000000E+00  0.00000000E+00  0.00000000E+00
  0.00000000E+00  0.00000000E+00  0.00000000E+00
  0.00000000E+00  0.00000000E+00  0.00000000E+00
  0.00000000E+00  0.00000000E+00  0.00000000E+00
  0.00000000E+00  0.00000000E+00  0.00000000E+00
  0.00000000E+00  0.00000000E+00  0.00000000E+00
  0.00000000E+00  0.00000000E+00  0.00000000E+00
  0.00000000E+00  0.00000000E+00  0.00000000E+00
  0.00000000E+00  0.00000000E+00  0.00000000E+00
  0.00000000E+00  0.00000000E+00  0.00000000E+00
  0.00000000E+00  0.00000000E+00  0.00000000E+00
  0.00000000E+00  0.00000000E+00  0.00000000E+00
  0.00000000E+00  0.00000000E+00  0.00000000E+00
  0.00000000E+00  0.00000000E+00  0.00000000E+00
  0.00000000E+00  0.00000000E+00  0.00000000E+00
  0.00000000E+00  0.00000000E+00  0.00000000E+00
  0.00000000E+00  0.00000000E+00  0.00000000E+00
  0.00000000E+00  0.00000000E+00  0.00000000E+00
  0.00000000E+00  0.00000000E+00  0.00000000E+00
  0.00000000E+00  0.00000000E+00  0.00000000E+00
  0.00000000E+00  0.00000000E+00  0.00000000E+00
  0.00000000E+00  0.00000000E+00  0.00000000E+00
  0.00000000E+00  0.00000000E+00  0.00000000E+00
  0.00000000E+00  0.00000000E+00  0.00000000E+00
  0.00000000E+00  0.00000000E+00  0.00000000E+00
  0.00000000E+00  0.00000000E+00  0.00000000E+00
  0.00000000E+00  0.00000000E+00  0.00000000E+00
  0.00000000E+00  0.00000000E+00  0.00000000E+00
  0.00000000E+00  0.00000000E+00  0.00000000E+00
  0.00000000E+00  0.00000000E+00  0.00000000E+00
  0.00000000E+00  0.00000000E+00  0.00000000E+00
  0.00000000E+00  0.00000000E+00  0.00000000E+00
  0.00000000E+00  0.00000000E+00  0.00000000E+00
  0.00000000E+00  0.00000000E+00  0.00000000E+00
  0.00000000E+00  0.00000000E+00  0.00000000E+00
  0.00000000E+00  0.00000000E+00  0.00000000E+00
  0.00000000E+00  0.00000000E+00  0.00000000E+00
  0.00000000E+00  0.00000000E+00  0.00000000E+00
  0.00000000E+00  0.00000000E+00  0.00000000E+00
  0.00000000E+00  0.00000000E+00  0.00000000E+00
  0.00000000E+00  0.00000000E+00  0.00000000E+00
  0.00000000E+00  0.00000000E+00  0.00000000E+00
  0.00000000E+00  0.00000000E+00  0.00000000E+00
  0.00000000E+00  0.00000000E+00  0.00000000E+00
  0.00000000E+00  0.00000000E+00  0.00000000E+00
  0.00000000E+00  0.00000000E+00  0.00000000E+00
  0.00000000E+00  0.00000000E+00  0.00000000E+00
  0.00000000E+00  0.00000000E+00  0.00000000E+00
  0.00000000E+00  0.00000000E+00  0.00000000E+00
  0.00000000E+00  0.00000000E+00  0.00000000E+00
  0.00000000E+00  0.00000000E+00  0.00000000E+00
  0.00000000E+00  0.00000000E+00  0.00000000E+00
  0.00000000E+00  0.00000000E+00  0.00000000E+00
  0.00000000E+00  0.00000000E+00  0.00000000E+00
  0.00000000E+00  0.00000000E+00  0.00000000E+00
  0.00000000E+00  0.00000000E+00  0.00000000E+00
  0.00000000E+00  0.00000000E+00  0.00000000E+00
  0.00000000E+00  0.00000000E+00  0.00000000E+00
  0.00000000E+00  0.00000000E+00  0.00000000E+00
  0.00000000E+00  0.00000000E+00  0.00000000E+00
  0.00000000E+00  0.00000000E+00  0.00000000E+00
  0.00000000E+00  0.00000000E+00  0.00000000E+00
  0.00000000E+00  0.00000000E+00  0.00000000E+00
  0.00000000E+00  0.00000000E+00  0.00000000E+00
  0.00000000E+00  0.00000000E+00  0.00000000E+00
  0.00000000E+00  0.00000000E+00  0.00000000E+00
  0.00000000E+00  0.00000000E+00  0.00000000E+00
  0.00000000E+00  0.00000000E+00  0.00000000E+00
  0.00000000E+00  0.00000000E+00  0.00000000E+00
  0.00000000E+00  0.00000000E+00  0.00000000E+00
  0.00000000E+00  0.00000000E+00  0.00000000E+00
  0.00000000E+00  0.00000000E+00  0.00000000E+00
  0.00000000E+00  0.00000000E+00  0.00000000E+00
  0.00000000E+00  0.00000000E+00  0.00000000E+00
  0.00000000E+00  0.00000000E+00  0.00000000E+00
  0.00000000E+00  0.00000000E+00  0.00000000E+00
  0.00000000E+00  0.00000000E+00  0.00000000E+00
  0.00000000E+00  0.00000000E+00  0.00000000E+00
  0.00000000E+00  0.00000000E+00  0.00000000E+00
  0.00000000E+00  0.00000000E+00  0.00000000E+00
  0.00000000E+00  0.00000000E+00  0.00000000E+00
  0.00000000E+00  0.00000000E+00  0.00000000E+00
  0.00000000E+00  0.00000000E+00  0.00000000E+00
  0.00000000E+00  0.00000000E+00  0.00000000E+00
  0.00000000E+00  0.00000000E+00  0.00000000E+00
  0.00000000E+00  0.00000000E+00  0.00000000E+00
  0.00000000E+00  0.00000000E+00  0.00000000E+00
  0.00000000E+00  0.00000000E+00  0.00000000E+00
  0.00000000E+00  0.00000000E+00  0.00000000E+00
  0.00000000E+00  0.00000000E+00  0.00000000E+00
  0.00000000E+00  0.00000000E+00  0.00000000E+00
  0.00000000E+00  0.00000000E+00  0.00000000E+00
  0.00000000E+00  0.00000000E+00  0.00000000E+00
  0.00000000E+00  0.00000000E+00  0.00000000E+00
  0.00000000E+00  0.00000000E+00  0.00000000E+00
  0.00000000E+00  0.00000000E+00  0.00000000E+00
  0.00000000E+00  0.00000000E+00  0.00000000E+00
  0.00000000E+00  0.00000000E+00  0.00000000E+00
  0.00000000E+00  0.00000000E+00  0.00000000E+00
  0.00000000E+00  0.00000000E+00  0.00000000E+00
  0.00000000E+00  0.00000000E+00  0.00000000E+00
  0.00000000E+00  0.00000000E+00  0.00000000E+00
  0.00000000E+00  0.00000000E+00  0.00000000E+00
  0.00000000E+00  0.00000000E+00  0.00000000E+00
  0.00000000E+00  0.00000000E+00  0.00000000E+00
  0.00000000E+00  0.00000000E+00  0.00000000E+00
  0.00000000E+00  0.00000000E+00  0.00000000E+00
  0.00000000E+00  0.00000000E+00  0.00000000E+00
  0.00000000E+00  0.00000000E+00  0.00000000E+00
  0.00000000E+00  0.00000000E+00  0.00000000E+00
  0.00000000E+00  0.00000000E+00  0.00000000E+00
  0.00000000E+00  0.00000000E+00  0.00000000E+00
  0.00000000E+00  0.00000000E+00  0.00000000E+00
  0.00000000E+00  0.00000000E+00  0.00000000E+00
  0.00000000E+00  0.00000000E+00  0.00000000E+00
  0.00000000E+00  0.00000000E+00  0.00000000E+00
  0.00000000E+00  0.00000000E+00  0.00000000E+00
  0.00000000E+00  0.00000000E+00  0.00000000E+00
  0.00000000E+00  0.00000000E+00  0.00000000E+00
  0.00000000E+00  0.00000000E+00  0.00000000E+00
  0.00000000E+00  0.00000000E+00  0.00000000E+00
  0.00000000E+00  0.00000000E+00  0.00000000E+00
  0.00000000E+00  0.00000000E+00  0.00000000E+00
  0.00000000E+00  0.00000000E+00  0.00000000E+00
  0.00000000E+00  0.00000000E+00  0.00000000E+00
  0.00000000E+00  0.00000000E+00  0.00000000E+00
  0.00000000E+00  0.00000000E+00  0.00000000E+00
  0.00000000E+00  0.00000000E+00  0.00000000E+00
  0.00000000E+00  0.00000000E+00  0.00000000E+00
  0.00000000E+00  0.00000000E+00  0.00000000E+00
  0.00000000E+00  0.00000000E+00  0.00000000E+00
  0.00000000E+00  0.00000000E+00  0.00000000E+00
  0.00000000E+00  0.00000000E+00  0.00000000E+00
  0.00000000E+00  0.00000000E+00  0.00000000E+00
  0.00000000E+00  0.00000000E+00  0.00000000E+00
  0.00000000E+00  0.00000000E+00  0.00000000E+00
  0.00000000E+00  0.00000000E+00  0.00000000E+00
  0.00000000E+00  0.00000000E+00  0.00000000E+00
  0.00000000E+00  0.00000000E+00  0.00000000E+00
  0.00000000E+00  0.00000000E+00  0.00000000E+00
  0.00000000E+00  0.00000000E+00  0.00000000E+00
  0.00000000E+00  0.00000000E+00  0.00000000E+00
  0.00000000E+00  0.00000000E+00  0.00000000E+00
  0.00000000E+00  0.00000000E+00  0.00000000E+00
  0.00000000E+00  0.00000000E+00  0.00000000E+00
  0.00000000E+00  0.00000000E+00  0.00000000E+00
  0.00000000E+00  0.00000000E+00  0.00000000E+00
  0.00000000E+00  0.00000000E+00  0.00000000E+00
  0.00000000E+00  0.00000000E+00  0.00000000E+00
  0.00000000E+00  0.00000000E+00  0.00000000E+00
  0.00000000E+00  0.00000000E+00  0.00000000E+00
  0.00000000E+00  0.00000000E+00  0.00000000E+00
  0.00000000E+00  0.00000000E+00  0.00000000E+00
  0.00000000E+00  0.00000000E+00  0.00000000E+00
  0.00000000E+00  0.00000000E+00  0.00000000E+00
  0.00000000E+00  0.00000000E+00  0.00000000E+00
  0.00000000E+00  0.00000000E+00  0.00000000E+00
  0.00000000E+00  0.00000000E+00  0.00000000E+00
  0.00000000E+00  0.00000000E+00  0.00000000E+00
  0.00000000E+00  0.00000000E+00  0.00000000E+00
  0.00000000E+00  0.00000000E+00  0.00000000E+00
  0.00000000E+00  0.00000000E+00  0.00000000E+00
  0.00000000E+00  0.00000000E+00  0.00000000E+00
  0.00000000E+00  0.00000000E+00  0.00000000E+00
  0.00000000E+00  0.00000000E+00  0.00000000E+00
  0.00000000E+00  0.00000000E+00  0.00000000E+00
  0.00000000E+00  0.00000000E+00  0.00000000E+00
  0.00000000E+00  0.00000000E+00  0.00000000E+00
  0.00000000E+00  0.00000000E+00  0.00000000E+00
  0.00000000E+00  0.00000000E+00  0.00000000E+00
  0.00000000E+00  0.00000000E+00  0.00000000E+00
  0.00000000E+00  0.00000000E+00  0.00000000E+00
  0.00000000E+00  0.00000000E+00  0.00000000E+00
  0.00000000E+00  0.00000000E+00  0.00000000E+00
  0.00000000E+00  0.00000000E+00  0.00000000E+00
  0.00000000E+00  0.00000000E+00  0.00000000E+00
  0.00000000E+00  0.00000000E+00  0.00000000E+00
  0.00000000E+00  0.00000000E+00  0.00000000E+00
  0.00000000E+00  0.00000000E+00  0.00000000E+00
  0.00000000E+00  0.00000000E+00  0.00000000E+00
  0.00000000E+00  0.00000000E+00  0.00000000E+00
  0.00000000E+00  0.00000000E+00  0.00000000E+00
  0.00000000E+00  0.00000000E+00  0.00000000E+00
  0.00000000E+00  0.00000000E+00  0.00000000E+00
  0.00000000E+00  0.00000000E+00  0.00000000E+00
  0.00000000E+00  0.00000000E+00  0.00000000E+00
  0.00000000E+00  0.00000000E+00  0.00000000E+00
  0.00000000E+00  0.00000000E+00  0.00000000E+00
  0.00000000E+00  0.00000000E+00  0.00000000E+00
  0.00000000E+00  0.00000000E+00  0.00000000E+00
  0.00000000E+00  0.00000000E+00  0.00000000E+00
  0.00000000E+00  0.00000000E+00  0.00000000E+00
  0.00000000E+00  0.00000000E+00  0.00000000E+00
  0.00000000E+00  0.00000000E+00  0.00000000E+00
  0.00000000E+00  0.00000000E+00  0.00000000E+00
  0.00000000E+00  0.00000000E+00  0.00000000E+00
  0.00000000E+00  0.00000000E+00  0.00000000E+00
  0.00000000E+00  0.00000000E+00  0.00000000E+00
  0.00000000E+00  0.00000000E+00  0.00000000E+00
  0.00000000E+00  0.00000000E+00  0.00000000E+00
  0.00000000E+00  0.00000000E+00  0.00000000E+00
  0.00000000E+00  0.00000000E+00  0.00000000E+00
  0.00000000E+00  0.00000000E+00  0.00000000E+00
  0.00000000E+00  0.00000000E+00  0.00000000E+00
  0.00000000E+00  0.00000000E+00  0.00000000E+00
  0.00000000E+00  0.00000000E+00  0.00000000E+00
  0.00000000E+00  0.00000000E+00  0.00000000E+00
  0.00000000E+00  0.00000000E+00  0.00000000E+00
  0.00000000E+00  0.00000000E+00  0.00000000E+00
  0.00000000E+00  0.00000000E+00  0.00000000E+00
  0.00000000E+00  0.00000000E+00  0.00000000E+00
  0.00000000E+00  0.00000000E+00  0.00000000E+00
  0.00000000E+00  0.00000000E+00  0.00000000E+00
  0.00000000E+00  0.00000000E+00  0.00000000E+00
  0.00000000E+00  0.00000000E+00  0.00000000E+00
  0.00000000E+00  0.00000000E+00  0.00000000E+00
  0.00000000E+00  0.00000000E+00  0.00000000E+00
  0.00000000E+00  0.00000000E+00  0.00000000E+00
  0.00000000E+00  0.00000000E+00  0.00000000E+00
  0.00000000E+00  0.00000000E+00  0.00000000E+00
  0.00000000E+00  0.00000000E+00  0.00000000E+00
  0.00000000E+00  0.00000000E+00  0.00000000E+00
  0.00000000E+00  0.00000000E+00  0.00000000E+00
  0.00000000E+00  0.00000000E+00  0.00000000E+00
  0.00000000E+00  0.00000000E+00  0.00000000E+00
  0.00000000E+00  0.00000000E+00  0.00000000E+00
  0.00000000E+00  0.00000000E+00  0.00000000E+00
  0.00000000E+00  0.00000000E+00  0.00000000E+00
  0.00000000E+00  0.00000000E+00  0.00000000E+00
  0.00000000E+00  0.00000000E+00  0.00000000E+00
  0.00000000E+00  0.00000000E+00  0.00000000E+00
