icsd_412154.cif                         
   1.00000000000000     
    15.6192315553000007    0.0000062638672842    0.1298238389000000
     0.0000030496813599    7.5363398973400004    0.0000017093855838
    -5.7973955372799999    0.0000004771285900   13.3575353746999994
   Cs   Sb
    16    16
Direct
  0.1437226701319929  0.3997561968120991  0.6644833122690486
  0.8562764529023283  0.8997566142868649  0.8355162429347800
  0.8562773074013421  0.6002437150366404  0.3355164574197715
  0.1437233860639111  0.1002436279702010  0.1644835466152728
  0.3777871071131287  0.1753038139634668  0.5302836552067305
  0.6222122243416379  0.6753023669844538  0.9697169497524882
  0.6222130359675617  0.8246955648090548  0.4697164941920278
  0.3777878071531902  0.3246982578531927  0.0302833034718972
  0.6485359143413945  0.4053397284475224  0.6717255588793165
  0.3514633080576246  0.9053416873932605  0.8282748036184557
  0.3514639508156776  0.5946608389497783  0.3282738597339616
  0.6485366510376807  0.0946577855008499  0.1717249526200817
  0.8702569523461179  0.1656867978832608  0.5334750338027661
  0.1297438995212516  0.6656866369421763  0.9665256815228318
  0.1297435422366178  0.8343129842509001  0.4665253781782823
  0.8702564714624970  0.3343136212079969  0.0334746826512031
  0.0784501325514810  0.9022164988291550  0.7137316119423502
  0.9215492846749811  0.4022182958148406  0.7862680967308506
  0.9215504536659012  0.0977839536701239  0.2862685850390534
  0.0784511884321617  0.5977812460739216  0.2137320763409818
  0.0793176046758433  0.1634580654084772  0.8622299111942908
  0.9206818239740642  0.6634588374762984  0.6377702596185415
  0.9206818216854060  0.8365420780844488  0.1377699740395926
  0.0793176274862830  0.3365411710049244  0.3622296016612410
  0.4174321116211956  0.4144777033028504  0.7793256909971547
  0.5825694065998945  0.9144806529847003  0.7206757551166518
  0.5825633291702914  0.5855282165397071  0.2206714918093269
  0.4174266809726390  0.0855142033054648  0.2793216840808981
  0.5747348367023051  0.1771259826898586  0.8650335807233560
  0.4252627227131072  0.6771253223972238  0.6349650517201368
  0.4252694642311425  0.8228686484945982  0.1349693684262476
  0.5747408299493486  0.3228788856317024  0.3650373476904250
 
  0.00000000E+00  0.00000000E+00  0.00000000E+00
  0.00000000E+00  0.00000000E+00  0.00000000E+00
  0.00000000E+00  0.00000000E+00  0.00000000E+00
  0.00000000E+00  0.00000000E+00  0.00000000E+00
  0.00000000E+00  0.00000000E+00  0.00000000E+00
  0.00000000E+00  0.00000000E+00  0.00000000E+00
  0.00000000E+00  0.00000000E+00  0.00000000E+00
  0.00000000E+00  0.00000000E+00  0.00000000E+00
  0.00000000E+00  0.00000000E+00  0.00000000E+00
  0.00000000E+00  0.00000000E+00  0.00000000E+00
  0.00000000E+00  0.00000000E+00  0.00000000E+00
  0.00000000E+00  0.00000000E+00  0.00000000E+00
  0.00000000E+00  0.00000000E+00  0.00000000E+00
  0.00000000E+00  0.00000000E+00  0.00000000E+00
  0.00000000E+00  0.00000000E+00  0.00000000E+00
  0.00000000E+00  0.00000000E+00  0.00000000E+00
  0.00000000E+00  0.00000000E+00  0.00000000E+00
  0.00000000E+00  0.00000000E+00  0.00000000E+00
  0.00000000E+00  0.00000000E+00  0.00000000E+00
  0.00000000E+00  0.00000000E+00  0.00000000E+00
  0.00000000E+00  0.00000000E+00  0.00000000E+00
  0.00000000E+00  0.00000000E+00  0.00000000E+00
  0.00000000E+00  0.00000000E+00  0.00000000E+00
  0.00000000E+00  0.00000000E+00  0.00000000E+00
  0.00000000E+00  0.00000000E+00  0.00000000E+00
  0.00000000E+00  0.00000000E+00  0.00000000E+00
  0.00000000E+00  0.00000000E+00  0.00000000E+00
  0.00000000E+00  0.00000000E+00  0.00000000E+00
  0.00000000E+00  0.00000000E+00  0.00000000E+00
  0.00000000E+00  0.00000000E+00  0.00000000E+00
  0.00000000E+00  0.00000000E+00  0.00000000E+00
  0.00000000E+00  0.00000000E+00  0.00000000E+00
