icsd_647982.cif                         
   1.00000000000000     
    11.0510227211000007    0.0000000942400953    0.0000035247738670
     0.0000001550486043   14.4593570804000002   -0.0000002256223132
     0.0000034850049660   -0.0000002127124332   11.0467726201000005
   P    Rb
    44    12
Direct
  0.0000000209143494  0.5322982226443003  0.7499999775829878
  0.5000000812096204  0.9677017288194278  0.2499999904348655
  0.9999999691838752  0.4677017746724061  0.2500000072288913
  0.4999999391370977  0.0322982050493152  0.7500000107440385
  0.3276362339890255  0.7622742372202751  0.2459417452950206
  0.1723639223568654  0.7377257812831530  0.7459417762353624
  0.8276361173874776  0.7377257779668653  0.7540582470071442
  0.6723638546445230  0.7622741878450654  0.2540582412606440
  0.6723638414904585  0.2377257271334017  0.7540582846741941
  0.8276360885016203  0.2622742191882139  0.2540582828495914
  0.1723638524673277  0.2622742308298456  0.2459416911720425
  0.3276361003779868  0.2377257695599653  0.7459417268803534
  0.4147835038499821  0.7892182747851919  0.4283366774146984
  0.0852161452535540  0.7107820357891939  0.9283368297552457
  0.9147839741510850  0.7107821794821518  0.5716631073249658
  0.5852166729728836  0.7892183536349293  0.0716633930192216
  0.5852165621277408  0.2107816915424010  0.5716633061972161
  0.9147837272429484  0.2892180543984679  0.0716632617866324
  0.0852160854215924  0.2892178778826562  0.4283368221856421
  0.4147833279193804  0.2107816573740280  0.9283366544403364
  0.4205376133513852  0.8674909056345399  0.1260320392418919
  0.0794626898150597  0.6325092191054580  0.6260318265312037
  0.9205373472629219  0.6325091474344546  0.8739680882298373
  0.5794625305044434  0.8674908634737761  0.3739680334216402
  0.5794624191073012  0.1325090579339090  0.8739680402247316
  0.9205373510607089  0.3674908036058326  0.3739681576334064
  0.0794625795900359  0.3674908662949434  0.1260319429584555
  0.4205374706596885  0.1325090903093056  0.6260319189889003
  0.4197224799830934  0.6289593265449369  0.1890324621993074
  0.0802771833962623  0.8710408366722362  0.6890320605003879
  0.9197227833035981  0.8710408079989662  0.8109678885221712
  0.5802774347931958  0.6289593060465890  0.3109676462212221
  0.5802774932909074  0.3710406868185174  0.8109675968291441
  0.9197227745470400  0.1289591963752201  0.3109679225455793
  0.0802772851937448  0.1289592187762594  0.1890322028140048
  0.4197225669625340  0.3710407106328617  0.6890323548669670
  0.5075199300048254  0.6579342449181809  0.0171699640574872
  0.9924802710005878  0.8420655145221261  0.5171707025480572
  0.0075197774160856  0.8420655420381493  0.9828295404466019
  0.4924800285808075  0.6579343231387895  0.4828298108379911
  0.4924800409857255  0.3420657010956418  0.9828299663288931
  0.0075198223254347  0.1579344919211181  0.4828293827587160
  0.9924801664574119  0.1579344257890085  0.0171703015897222
  0.5075199625791029  0.3420656403443658  0.5171701663314536
  0.0000000205940651  0.2864992381470941  0.7499999676957074
  0.5000000322762759  0.2135006853194241  0.2500000063526855
  0.9999999993008757  0.7135008247095627  0.2500000145598804
  0.4999999532003727  0.7864992276419187  0.7499999650084987
  0.2318297798650235  0.9918179613219920  0.4328254492915633
  0.2681701399854930  0.5081823079931524  0.9328255995415091
  0.7318296422529258  0.5081823289166678  0.5671740760363022
  0.7681702229522784  0.9918179751116512  0.0671742574716632
  0.7681702140460871  0.0081820729691984  0.5671743771675537
  0.7318296688587864  0.4918177212631960  0.0671745206767937
  0.2681703633468544  0.4918176504274783  0.4328258318747302
  0.2318299405496660  0.0081820916521949  0.9328258842062169
 
  0.00000000E+00  0.00000000E+00  0.00000000E+00
  0.00000000E+00  0.00000000E+00  0.00000000E+00
  0.00000000E+00  0.00000000E+00  0.00000000E+00
  0.00000000E+00  0.00000000E+00  0.00000000E+00
  0.00000000E+00  0.00000000E+00  0.00000000E+00
  0.00000000E+00  0.00000000E+00  0.00000000E+00
  0.00000000E+00  0.00000000E+00  0.00000000E+00
  0.00000000E+00  0.00000000E+00  0.00000000E+00
  0.00000000E+00  0.00000000E+00  0.00000000E+00
  0.00000000E+00  0.00000000E+00  0.00000000E+00
  0.00000000E+00  0.00000000E+00  0.00000000E+00
  0.00000000E+00  0.00000000E+00  0.00000000E+00
  0.00000000E+00  0.00000000E+00  0.00000000E+00
  0.00000000E+00  0.00000000E+00  0.00000000E+00
  0.00000000E+00  0.00000000E+00  0.00000000E+00
  0.00000000E+00  0.00000000E+00  0.00000000E+00
  0.00000000E+00  0.00000000E+00  0.00000000E+00
  0.00000000E+00  0.00000000E+00  0.00000000E+00
  0.00000000E+00  0.00000000E+00  0.00000000E+00
  0.00000000E+00  0.00000000E+00  0.00000000E+00
  0.00000000E+00  0.00000000E+00  0.00000000E+00
  0.00000000E+00  0.00000000E+00  0.00000000E+00
  0.00000000E+00  0.00000000E+00  0.00000000E+00
  0.00000000E+00  0.00000000E+00  0.00000000E+00
  0.00000000E+00  0.00000000E+00  0.00000000E+00
  0.00000000E+00  0.00000000E+00  0.00000000E+00
  0.00000000E+00  0.00000000E+00  0.00000000E+00
  0.00000000E+00  0.00000000E+00  0.00000000E+00
  0.00000000E+00  0.00000000E+00  0.00000000E+00
  0.00000000E+00  0.00000000E+00  0.00000000E+00
  0.00000000E+00  0.00000000E+00  0.00000000E+00
  0.00000000E+00  0.00000000E+00  0.00000000E+00
  0.00000000E+00  0.00000000E+00  0.00000000E+00
  0.00000000E+00  0.00000000E+00  0.00000000E+00
  0.00000000E+00  0.00000000E+00  0.00000000E+00
  0.00000000E+00  0.00000000E+00  0.00000000E+00
  0.00000000E+00  0.00000000E+00  0.00000000E+00
  0.00000000E+00  0.00000000E+00  0.00000000E+00
  0.00000000E+00  0.00000000E+00  0.00000000E+00
  0.00000000E+00  0.00000000E+00  0.00000000E+00
  0.00000000E+00  0.00000000E+00  0.00000000E+00
  0.00000000E+00  0.00000000E+00  0.00000000E+00
  0.00000000E+00  0.00000000E+00  0.00000000E+00
  0.00000000E+00  0.00000000E+00  0.00000000E+00
  0.00000000E+00  0.00000000E+00  0.00000000E+00
  0.00000000E+00  0.00000000E+00  0.00000000E+00
  0.00000000E+00  0.00000000E+00  0.00000000E+00
  0.00000000E+00  0.00000000E+00  0.00000000E+00
  0.00000000E+00  0.00000000E+00  0.00000000E+00
  0.00000000E+00  0.00000000E+00  0.00000000E+00
  0.00000000E+00  0.00000000E+00  0.00000000E+00
  0.00000000E+00  0.00000000E+00  0.00000000E+00
  0.00000000E+00  0.00000000E+00  0.00000000E+00
  0.00000000E+00  0.00000000E+00  0.00000000E+00
  0.00000000E+00  0.00000000E+00  0.00000000E+00
  0.00000000E+00  0.00000000E+00  0.00000000E+00
