icsd_001404.cif                         
   1.00000000000000     
    10.4962365020000004   -0.0000000548284845   -0.0184574183896000
    -0.0000000247892028   13.8375135466000003   -0.0000019047060685
    -0.0305338294075000   -0.0000009457079155    6.9507616034500002
   As   Ba
    28     6
Direct
  0.3132033860550294  0.0007678709021093  0.5945583110697541
  0.8132034787204745  0.4992321645245212  0.0945583546937030
  0.6867966025503165  0.9992321436786682  0.4054417012465876
  0.1867965322058538  0.5007678234469708  0.9054416407206745
  0.3536931786158277  0.8535968881215439  0.3875490544538351
  0.8536932161736672  0.6464029973737411  0.8875487782833034
  0.6463068374516752  0.1464030854226337  0.6124508880568840
  0.1463067960838984  0.3535970400763588  0.1124511868396425
  0.6816130111949761  0.0589047044952693  0.0762742686230098
  0.1816130619248568  0.4410952877538179  0.5762744404670315
  0.3183869738486251  0.9410952910020640  0.9237256835850900
  0.8183869522962937  0.5589047290673221  0.4237255175357220
  0.5316122934234286  0.6850232557269180  0.1746222999981413
  0.0316122627992996  0.8149767828489374  0.6746220501813411
  0.4683876868571488  0.3149767510901995  0.8253777399002047
  0.9683877168599579  0.1850232003069436  0.3253779673779391
  0.6271625998022117  0.5799674191026227  0.9374259858139240
  0.1271625701172212  0.9200325703253966  0.4374261994294528
  0.3728373785429966  0.4200325628524197  0.0625739787134449
  0.8728373890306500  0.0799674353317741  0.5625737658633625
  0.3616560915363891  0.7182473935807749  0.6101784264807861
  0.8616561309563764  0.7817527847035066  0.1101787697734053
  0.6383439026028981  0.2817525958873404  0.3898216358255553
  0.1383438616155317  0.2182472186194602  0.8898212841408366
  0.7228855621769839  0.7203331023052044  0.3687524471164068
  0.2228855138514234  0.7796668698725568  0.8687523937946366
  0.2771144464548243  0.2796668801263280  0.6312475551045367
  0.7771144828021335  0.2203331487612274  0.1312475850516037
  0.5000000088553946  0.4999999885560769  0.5000000065093033
  0.9999999980287626  0.0000000079110549  0.0000000017753621
  0.1093594837375633  0.6582101652664036  0.3072954839758708
  0.6093595499298559  0.8417897850845790  0.8072954886609551
  0.8906405756341371  0.3417898403240258  0.6927045487516068
  0.3906404672633386  0.1582102155512288  0.1927045601860584
 
  0.00000000E+00  0.00000000E+00  0.00000000E+00
  0.00000000E+00  0.00000000E+00  0.00000000E+00
  0.00000000E+00  0.00000000E+00  0.00000000E+00
  0.00000000E+00  0.00000000E+00  0.00000000E+00
  0.00000000E+00  0.00000000E+00  0.00000000E+00
  0.00000000E+00  0.00000000E+00  0.00000000E+00
  0.00000000E+00  0.00000000E+00  0.00000000E+00
  0.00000000E+00  0.00000000E+00  0.00000000E+00
  0.00000000E+00  0.00000000E+00  0.00000000E+00
  0.00000000E+00  0.00000000E+00  0.00000000E+00
  0.00000000E+00  0.00000000E+00  0.00000000E+00
  0.00000000E+00  0.00000000E+00  0.00000000E+00
  0.00000000E+00  0.00000000E+00  0.00000000E+00
  0.00000000E+00  0.00000000E+00  0.00000000E+00
  0.00000000E+00  0.00000000E+00  0.00000000E+00
  0.00000000E+00  0.00000000E+00  0.00000000E+00
  0.00000000E+00  0.00000000E+00  0.00000000E+00
  0.00000000E+00  0.00000000E+00  0.00000000E+00
  0.00000000E+00  0.00000000E+00  0.00000000E+00
  0.00000000E+00  0.00000000E+00  0.00000000E+00
  0.00000000E+00  0.00000000E+00  0.00000000E+00
  0.00000000E+00  0.00000000E+00  0.00000000E+00
  0.00000000E+00  0.00000000E+00  0.00000000E+00
  0.00000000E+00  0.00000000E+00  0.00000000E+00
  0.00000000E+00  0.00000000E+00  0.00000000E+00
  0.00000000E+00  0.00000000E+00  0.00000000E+00
  0.00000000E+00  0.00000000E+00  0.00000000E+00
  0.00000000E+00  0.00000000E+00  0.00000000E+00
  0.00000000E+00  0.00000000E+00  0.00000000E+00
  0.00000000E+00  0.00000000E+00  0.00000000E+00
  0.00000000E+00  0.00000000E+00  0.00000000E+00
  0.00000000E+00  0.00000000E+00  0.00000000E+00
  0.00000000E+00  0.00000000E+00  0.00000000E+00
  0.00000000E+00  0.00000000E+00  0.00000000E+00
