icsd_035295.cif                         
   1.00000000000000     
    -6.4996746506200003    0.0000153067348201   -0.0000000091348835
     3.2498220405499998    6.4830581861100001   -0.0000001477728091
    -0.0000000136712977    0.0000002954755127  -12.1417622822000002
   P    Ba
    20     2
Direct
  0.6130657054019935  0.2261324033767380  0.1073139787025283
  0.3869343684634998  0.7738677489515169  0.6073139513826007
  0.9351673769972209  0.8703337147084085  0.0572618368018354
  0.0648326862757997  0.1296664079742982  0.5572619569032042
  0.5921142151197003  0.1842307785681143  0.2848140186258021
  0.4078857135130463  0.8157690889588096  0.7848139694304379
  0.1863775067202198  0.3727591111317992  0.4296872736423865
  0.8136224234363851  0.6272407489652991  0.9296871629675749
  0.0909983206831413  0.1819992499789791  0.2796853892224291
  0.9090016225959658  0.8180006310482071  0.7796853367103864
  0.4513269230799821  0.9026519836238549  0.0640294176020504
  0.5486730963942534  0.0973480453799240  0.5640294181077579
  0.6215262134136452  0.7546630059264672  0.1637527014337294
  0.1331397097960689  0.7546638393479981  0.1637525303637730
  0.3784738353687374  0.2453369742406011  0.6637528147640808
  0.8668602253759943  0.2453361400469660  0.6637526497639925
  0.7282089296740679  0.9551873195029827  0.3158697608069048
  0.2269782624153507  0.9551875429285062  0.3158697067792033
  0.2717910203859333  0.0448125280927414  0.8158697901728829
  0.7730216222718411  0.0448122942633162  0.8158697291383632
  0.8120238203385881  0.6240458316424267  0.5073635990297447
  0.1879764022785295  0.3759546113420313  0.0073630076483440
 
  0.00000000E+00  0.00000000E+00  0.00000000E+00
  0.00000000E+00  0.00000000E+00  0.00000000E+00
  0.00000000E+00  0.00000000E+00  0.00000000E+00
  0.00000000E+00  0.00000000E+00  0.00000000E+00
  0.00000000E+00  0.00000000E+00  0.00000000E+00
  0.00000000E+00  0.00000000E+00  0.00000000E+00
  0.00000000E+00  0.00000000E+00  0.00000000E+00
  0.00000000E+00  0.00000000E+00  0.00000000E+00
  0.00000000E+00  0.00000000E+00  0.00000000E+00
  0.00000000E+00  0.00000000E+00  0.00000000E+00
  0.00000000E+00  0.00000000E+00  0.00000000E+00
  0.00000000E+00  0.00000000E+00  0.00000000E+00
  0.00000000E+00  0.00000000E+00  0.00000000E+00
  0.00000000E+00  0.00000000E+00  0.00000000E+00
  0.00000000E+00  0.00000000E+00  0.00000000E+00
  0.00000000E+00  0.00000000E+00  0.00000000E+00
  0.00000000E+00  0.00000000E+00  0.00000000E+00
  0.00000000E+00  0.00000000E+00  0.00000000E+00
  0.00000000E+00  0.00000000E+00  0.00000000E+00
  0.00000000E+00  0.00000000E+00  0.00000000E+00
  0.00000000E+00  0.00000000E+00  0.00000000E+00
  0.00000000E+00  0.00000000E+00  0.00000000E+00
