icsd_409653.cif                         
   1.00000000000000     
     6.7841329162499999    0.0000003532770183    0.0000022077493216
     0.0000003740270041    6.5537285707199997   -0.0000037835157626
     0.0000038227440257   -0.0000068024458859   11.7384020963999998
   K    As
     8     8
Direct
  0.6031609178502677  0.4160377928630012  0.4607233205643126
  0.8968384643735661  0.5839622602253769  0.9607232422186271
  0.1031610977771606  0.0839619728670797  0.5392766544839986
  0.3968386951157541  0.9160377141962641  0.0392767652273420
  0.8562727619455544  0.1501207340855615  0.1681826468613821
  0.6437273688158811  0.8498793409061847  0.6681828713591358
  0.3562727011918767  0.3498794103385023  0.8318172414751501
  0.1437273138894852  0.6501207267560147  0.3318172394099932
  0.6855502755999510  0.6566878541620866  0.2167017041126655
  0.8144502882552445  0.3433119250203731  0.7167018539706547
  0.1855503575904436  0.8433119990201021  0.7832982407902520
  0.3144502637866466  0.1566880313679277  0.2832981691159375
  0.5704810287502582  0.9175268239242342  0.3617633201750294
  0.9295185382977280  0.0824739573379034  0.8617632271640261
  0.0704812056751649  0.5824732564328698  0.6382366830785671
  0.4295187210850244  0.4175262004965177  0.1382368199929189
 
  0.00000000E+00  0.00000000E+00  0.00000000E+00
  0.00000000E+00  0.00000000E+00  0.00000000E+00
  0.00000000E+00  0.00000000E+00  0.00000000E+00
  0.00000000E+00  0.00000000E+00  0.00000000E+00
  0.00000000E+00  0.00000000E+00  0.00000000E+00
  0.00000000E+00  0.00000000E+00  0.00000000E+00
  0.00000000E+00  0.00000000E+00  0.00000000E+00
  0.00000000E+00  0.00000000E+00  0.00000000E+00
  0.00000000E+00  0.00000000E+00  0.00000000E+00
  0.00000000E+00  0.00000000E+00  0.00000000E+00
  0.00000000E+00  0.00000000E+00  0.00000000E+00
  0.00000000E+00  0.00000000E+00  0.00000000E+00
  0.00000000E+00  0.00000000E+00  0.00000000E+00
  0.00000000E+00  0.00000000E+00  0.00000000E+00
  0.00000000E+00  0.00000000E+00  0.00000000E+00
  0.00000000E+00  0.00000000E+00  0.00000000E+00
