icsd_014010.cif                         
   1.00000000000000     
     6.5982310525600001    0.0000003285654657   -0.0000001687776066
     0.0000002981094344    6.0982729405300002    0.0000009540160087
    -0.0000002807746127    0.0000017894287997   11.4053251401000004
   P    K 
     8     8
Direct
  0.6683205386244708  0.6561195873567343  0.2207326866895798
  0.8316792892613378  0.3438804834371112  0.7207326270820573
  0.1683205991708405  0.8438804379028610  0.7792673278569922
  0.3316792504302271  0.1561196124432769  0.2792673378278892
  0.5615988249220223  0.9160428251114325  0.3508596614373261
  0.9384010794486457  0.0839571413972919  0.8508596494434499
  0.0615989234322427  0.5839572307839731  0.6491403566339002
  0.4384011423660397  0.4160429523322193  0.1491403476396229
  0.6038790393835143  0.4149543041599699  0.4664040389675677
  0.8961212439774329  0.5850455883808579  0.9664040910449216
  0.1038789944126393  0.0850456518770102  0.5335959327647188
  0.3961211576901817  0.9149544071789109  0.0335959356232962
  0.8668165182614445  0.1473295151083320  0.1665232736345530
  0.6331833865692076  0.8526703544384873  0.6665231014496769
  0.3668165974828739  0.3526703853793123  0.8334768231915177
  0.1331834145668722  0.6473295227122406  0.3334768087129305
 
  0.00000000E+00  0.00000000E+00  0.00000000E+00
  0.00000000E+00  0.00000000E+00  0.00000000E+00
  0.00000000E+00  0.00000000E+00  0.00000000E+00
  0.00000000E+00  0.00000000E+00  0.00000000E+00
  0.00000000E+00  0.00000000E+00  0.00000000E+00
  0.00000000E+00  0.00000000E+00  0.00000000E+00
  0.00000000E+00  0.00000000E+00  0.00000000E+00
  0.00000000E+00  0.00000000E+00  0.00000000E+00
  0.00000000E+00  0.00000000E+00  0.00000000E+00
  0.00000000E+00  0.00000000E+00  0.00000000E+00
  0.00000000E+00  0.00000000E+00  0.00000000E+00
  0.00000000E+00  0.00000000E+00  0.00000000E+00
  0.00000000E+00  0.00000000E+00  0.00000000E+00
  0.00000000E+00  0.00000000E+00  0.00000000E+00
  0.00000000E+00  0.00000000E+00  0.00000000E+00
  0.00000000E+00  0.00000000E+00  0.00000000E+00
