icsd_055066.cif                         
   1.00000000000000     
    15.0274246573999992   -0.0000016850094954   -0.0471701424855000
    -0.0000009137784814    7.6376927207099996   -0.0000005399579001
    -5.5933186562900001   -0.0000004583809739   12.9547158729999996
   Bi   Rb
    16    16
Direct
  0.0710758103051674  0.8654380298058868  0.6870677923528632
  0.9289243389584314  0.3654379503452105  0.8129322745555143
  0.9289246341709969  0.1345624122398519  0.3129326585179939
  0.0710752010284921  0.6345624678114987  0.1870672926579360
  0.1053905063466587  0.1261412182822497  0.8645741184698537
  0.8946096425290975  0.6261411660067751  0.6354259735019880
  0.8946091689679960  0.8738595907232636  0.1354259819542492
  0.1053906774401980  0.3738596633059998  0.3645739678476616
  0.3979453495878715  0.4352519074807120  0.7689615814392923
  0.6020547534736522  0.9352520860726088  0.7310383430778629
  0.6020548017093574  0.5647476107201257  0.2310385968571893
  0.3979451155885982  0.0647474145226283  0.2689614396051709
  0.5737684924388731  0.2012444978921195  0.8824527374576405
  0.4262316268977102  0.7012443818292553  0.6175472173219703
  0.4262317116044940  0.7987550312303853  0.1175473131329738
  0.5737681787125624  0.2987551799986292  0.3824526947568998
  0.1241196748127891  0.3824859302447905  0.6463374121048204
  0.8758803688932986  0.8824859355935573  0.8536626553897051
  0.8758803126206729  0.6175138589960483  0.3536625290965816
  0.1241196427510900  0.1175138631989583  0.1463374595415630
  0.3932478335237732  0.1946920795789424  0.5328500022793463
  0.6067521750925380  0.6946924853440706  0.9671497721360325
  0.6067521447330080  0.8053079434241752  0.4671499173166467
  0.3932478754176287  0.3053075269163799  0.0328502718102897
  0.6554230147499140  0.4217294748805855  0.6895017193569188
  0.3445771800311448  0.9217291872693778  0.8104982656256183
  0.3445767992763606  0.5782704961796128  0.3104982519222617
  0.6554229870403177  0.0782708085653638  0.1895017481601826
  0.8520088452668020  0.1426237157033228  0.5485148184223902
  0.1479914268406830  0.6426236008214801  0.9514850409227265
  0.1479910593587377  0.8573761972448324  0.4514847597548552
  0.8520086498310917  0.3573762877712952  0.0485153926529662
 
  0.00000000E+00  0.00000000E+00  0.00000000E+00
  0.00000000E+00  0.00000000E+00  0.00000000E+00
  0.00000000E+00  0.00000000E+00  0.00000000E+00
  0.00000000E+00  0.00000000E+00  0.00000000E+00
  0.00000000E+00  0.00000000E+00  0.00000000E+00
  0.00000000E+00  0.00000000E+00  0.00000000E+00
  0.00000000E+00  0.00000000E+00  0.00000000E+00
  0.00000000E+00  0.00000000E+00  0.00000000E+00
  0.00000000E+00  0.00000000E+00  0.00000000E+00
  0.00000000E+00  0.00000000E+00  0.00000000E+00
  0.00000000E+00  0.00000000E+00  0.00000000E+00
  0.00000000E+00  0.00000000E+00  0.00000000E+00
  0.00000000E+00  0.00000000E+00  0.00000000E+00
  0.00000000E+00  0.00000000E+00  0.00000000E+00
  0.00000000E+00  0.00000000E+00  0.00000000E+00
  0.00000000E+00  0.00000000E+00  0.00000000E+00
  0.00000000E+00  0.00000000E+00  0.00000000E+00
  0.00000000E+00  0.00000000E+00  0.00000000E+00
  0.00000000E+00  0.00000000E+00  0.00000000E+00
  0.00000000E+00  0.00000000E+00  0.00000000E+00
  0.00000000E+00  0.00000000E+00  0.00000000E+00
  0.00000000E+00  0.00000000E+00  0.00000000E+00
  0.00000000E+00  0.00000000E+00  0.00000000E+00
  0.00000000E+00  0.00000000E+00  0.00000000E+00
  0.00000000E+00  0.00000000E+00  0.00000000E+00
  0.00000000E+00  0.00000000E+00  0.00000000E+00
  0.00000000E+00  0.00000000E+00  0.00000000E+00
  0.00000000E+00  0.00000000E+00  0.00000000E+00
  0.00000000E+00  0.00000000E+00  0.00000000E+00
  0.00000000E+00  0.00000000E+00  0.00000000E+00
  0.00000000E+00  0.00000000E+00  0.00000000E+00
  0.00000000E+00  0.00000000E+00  0.00000000E+00
