icsd_036590.cif                         
   1.00000000000000     
    10.7914210433999997   -0.0000005094417946    0.0000000826942888
    -0.0000006558268481   13.9255155526000003   -0.0000001536970108
     0.0000001635305490   -0.0000002359278420   10.7044540286000007
   P    K 
    44    12
Direct
  0.7561567910606541  0.7614341566693383  0.3221723429645280
  0.2561567189755820  0.7385659409737428  0.1778276546842790
  0.2438432515491016  0.7385659151610966  0.8221723233328575
  0.7438431587673193  0.7614341505746651  0.6778276455251842
  0.2438432461060600  0.2385658983613226  0.6778276822341525
  0.7438430841469383  0.2614340232652737  0.8221723624871800
  0.7561568710522124  0.2614340341780306  0.1778276257216902
  0.2561567421428350  0.2385659181825019  0.3221723501640170
  0.5686967481114920  0.7896005824214640  0.4102848501385665
  0.0686968595584290  0.7103993781128466  0.0897151364262712
  0.4313031037648898  0.7103994180899633  0.9102848657694267
  0.9313031885228682  0.7896006307516288  0.5897151389274384
  0.4313031423485540  0.2103994147926258  0.5897151609730784
  0.9313030724350853  0.2896005517678333  0.9102848118252211
  0.5686968861659949  0.2896005196862461  0.0897151983822297
  0.0686968362482432  0.2103993963929511  0.4102848467008187
  0.8777186085824482  0.8705649435913401  0.4190516488104947
  0.3777185346556777  0.6294352063064679  0.0809483579392634
  0.1222814636689691  0.6294351593539744  0.9190516259656718
  0.6222813230052751  0.8705648920060582  0.5809483556255159
  0.1222814573237443  0.1294350386208549  0.5809483451339830
  0.6222813664444473  0.3705648519870266  0.9190517049440317
  0.8777185879525291  0.3705649003407459  0.0809482975736628
  0.3777185568649628  0.1294350741786090  0.4190516563606508
  0.8131969131335097  0.6231204142038607  0.4178415466060130
  0.3131967503148942  0.8768796880539043  0.0821585532407738
  0.1868031689126468  0.8768796606657006  0.9178414014958776
  0.6868030878119669  0.6231203986958604  0.5821584350197355
  0.1868030950994850  0.3768795912720719  0.5821585160233269
  0.6868030854310092  0.1231202789450947  0.9178414980815361
  0.8131969314960514  0.1231202988191171  0.0821584482245612
  0.3131968463236845  0.3768796141368966  0.4178415679659935
  0.9880516168261053  0.6528365405260814  0.5113134126501322
  0.4880516523791272  0.8471636859417231  0.9886866808530854
  0.0119483053393026  0.8471636326456817  0.0113133133709837
  0.5119483551404471  0.6528364807254050  0.4886865845241033
  0.0119483093384147  0.3471635286182391  0.4886867236781924
  0.5119482760441230  0.1528364021454180  0.0113133996212582
  0.9880517027620854  0.1528364684845585  0.9886865891203200
  0.4880516879161121  0.3471635769460306  0.5113133009420849
  0.7499999727903699  0.4745987497456738  0.9999999765231919
  0.2500000490807892  0.0254012291093275  0.5000000052541580
  0.2500000401495086  0.5254011750128527  0.9999999905705437
  0.7499999650466975  0.9745987462951433  0.5000000297263654
  0.5704885050888464  0.9927057638639383  0.2345484822202195
  0.0704887316616691  0.5072942270533289  0.2654516563323526
  0.4295116642856698  0.5072942419554352  0.7345485495367825
  0.9295115036314172  0.9927056988970406  0.7654515242057585
  0.4295118451738915  0.0072942687472093  0.7654513969801613
  0.9295116524898219  0.4927057894600040  0.7345485423129361
  0.5704883330245210  0.4927058417673607  0.2654514094427327
  0.0704884413526017  0.0072942730655896  0.2345484653851244
  0.7499999384023610  0.7181640052785454  0.0000000173691390
  0.2500000010388561  0.7818356774228903  0.5000000205299955
  0.2500000073043793  0.2818363562295332  0.9999999829723976
  0.7499999657553431  0.2181636995038332  0.4999999906099646
 
  0.00000000E+00  0.00000000E+00  0.00000000E+00
  0.00000000E+00  0.00000000E+00  0.00000000E+00
  0.00000000E+00  0.00000000E+00  0.00000000E+00
  0.00000000E+00  0.00000000E+00  0.00000000E+00
  0.00000000E+00  0.00000000E+00  0.00000000E+00
  0.00000000E+00  0.00000000E+00  0.00000000E+00
  0.00000000E+00  0.00000000E+00  0.00000000E+00
  0.00000000E+00  0.00000000E+00  0.00000000E+00
  0.00000000E+00  0.00000000E+00  0.00000000E+00
  0.00000000E+00  0.00000000E+00  0.00000000E+00
  0.00000000E+00  0.00000000E+00  0.00000000E+00
  0.00000000E+00  0.00000000E+00  0.00000000E+00
  0.00000000E+00  0.00000000E+00  0.00000000E+00
  0.00000000E+00  0.00000000E+00  0.00000000E+00
  0.00000000E+00  0.00000000E+00  0.00000000E+00
  0.00000000E+00  0.00000000E+00  0.00000000E+00
  0.00000000E+00  0.00000000E+00  0.00000000E+00
  0.00000000E+00  0.00000000E+00  0.00000000E+00
  0.00000000E+00  0.00000000E+00  0.00000000E+00
  0.00000000E+00  0.00000000E+00  0.00000000E+00
  0.00000000E+00  0.00000000E+00  0.00000000E+00
  0.00000000E+00  0.00000000E+00  0.00000000E+00
  0.00000000E+00  0.00000000E+00  0.00000000E+00
  0.00000000E+00  0.00000000E+00  0.00000000E+00
  0.00000000E+00  0.00000000E+00  0.00000000E+00
  0.00000000E+00  0.00000000E+00  0.00000000E+00
  0.00000000E+00  0.00000000E+00  0.00000000E+00
  0.00000000E+00  0.00000000E+00  0.00000000E+00
  0.00000000E+00  0.00000000E+00  0.00000000E+00
  0.00000000E+00  0.00000000E+00  0.00000000E+00
  0.00000000E+00  0.00000000E+00  0.00000000E+00
  0.00000000E+00  0.00000000E+00  0.00000000E+00
  0.00000000E+00  0.00000000E+00  0.00000000E+00
  0.00000000E+00  0.00000000E+00  0.00000000E+00
  0.00000000E+00  0.00000000E+00  0.00000000E+00
  0.00000000E+00  0.00000000E+00  0.00000000E+00
  0.00000000E+00  0.00000000E+00  0.00000000E+00
  0.00000000E+00  0.00000000E+00  0.00000000E+00
  0.00000000E+00  0.00000000E+00  0.00000000E+00
  0.00000000E+00  0.00000000E+00  0.00000000E+00
  0.00000000E+00  0.00000000E+00  0.00000000E+00
  0.00000000E+00  0.00000000E+00  0.00000000E+00
  0.00000000E+00  0.00000000E+00  0.00000000E+00
  0.00000000E+00  0.00000000E+00  0.00000000E+00
  0.00000000E+00  0.00000000E+00  0.00000000E+00
  0.00000000E+00  0.00000000E+00  0.00000000E+00
  0.00000000E+00  0.00000000E+00  0.00000000E+00
  0.00000000E+00  0.00000000E+00  0.00000000E+00
  0.00000000E+00  0.00000000E+00  0.00000000E+00
  0.00000000E+00  0.00000000E+00  0.00000000E+00
  0.00000000E+00  0.00000000E+00  0.00000000E+00
  0.00000000E+00  0.00000000E+00  0.00000000E+00
  0.00000000E+00  0.00000000E+00  0.00000000E+00
  0.00000000E+00  0.00000000E+00  0.00000000E+00
  0.00000000E+00  0.00000000E+00  0.00000000E+00
  0.00000000E+00  0.00000000E+00  0.00000000E+00
