icsd_182160.cif                         
   1.00000000000000     
     3.0820477066300001    0.0000034695206373   -0.0000110774457612
     0.0000001297100824    2.9068892138800000    0.0000103297499313
     0.0000158954019625   -0.0000198028033873    4.4808198076199997
   Na   As
     1     1
Direct
  0.9999999999570122  0.0000000001043219  0.0000000000128821
  0.5000000000429878  0.4999999998956781  0.4999999999871179
 
  0.00000000E+00  0.00000000E+00  0.00000000E+00
  0.00000000E+00  0.00000000E+00  0.00000000E+00
