icsd_159092.cif                         
   1.00000000000000     
    17.6617110359999998   -0.0767161961018000   -0.0373466804895000
    13.2386141381000009   11.5413125079000007   -0.0410861983377000
     1.6001384469300000    0.5752767241570000   10.8456519623999998
   Sb   Zn
    40    52
Direct
  0.5547805640170864  0.8245609796816211  0.5657504086833427
  0.4452194381056245  0.1754390190055233  0.4342495906524420
  0.0456825864187564  0.3291004049789379  0.0577874128202467
  0.9543174127444942  0.6708995978547634  0.9422125839247144
  0.2891911916609757  0.5855403772036070  0.8113696111835011
  0.7108088079167061  0.4144596223927479  0.1886303892503634
  0.7849361012756759  0.0833012803281719  0.3064261275064410
  0.2150638994090528  0.9166987193209764  0.6935738725582468
  0.4044596544933725  0.0434468690394780  0.2046599942501288
  0.5955403472272423  0.9565531295034191  0.7953400062030411
  0.9076315031840352  0.5466563492625340  0.7046309055106406
  0.0923684964971798  0.4533436521195924  0.2953690924393868
  0.0695323960875314  0.7360858725924899  0.1615085389662383
  0.9304676036747566  0.2639141261298761  0.8384914612650078
  0.5681983083628239  0.2271928775692160  0.6777675959277687
  0.4318016911381832  0.7728071239837320  0.3222324036007151
  0.0998726843546294  0.0864240523753921  0.2659002834035675
  0.9001273167665573  0.9135759452054089  0.7340997191266894
  0.4155348339118063  0.4099946526332090  0.2169011942966392
  0.5844651662870035  0.5900053476192042  0.7830988049343759
  0.0376060661296833  0.0265868135248155  0.1060609238132031
  0.9623939347029449  0.9734131860118254  0.8939390734467167
  0.3374209532893104  0.9697302553451976  0.9162830928117245
  0.6625790476900235  0.0302697449995932  0.0837169081338587
  0.8418770477294544  0.4660773054518188  0.4104347340132577
  0.1581229529412056  0.5339226927090053  0.5895652672075471
  0.1631774067640208  0.7729469062013621  0.4470717317915529
  0.8368225907455908  0.2270530964196453  0.5529282678888094
  0.6516256316387157  0.2930604667779235  0.9628166643747988
  0.3483743685953016  0.7069395328713242  0.0371833344513490
  0.7787101733018531  0.7876631971726056  0.3502223549487269
  0.2212898275417032  0.2123367999449073  0.6497776478603470
  0.3406704629842991  0.3431654444100189  0.0207627059131568
  0.6593295364886416  0.6568345553961663  0.9792372939966327
  0.7184379690107505  0.7150965016939850  0.1466523929310526
  0.2815620303058068  0.2849035001404658  0.8533476086598952
  0.1751335527892408  0.1505468614954353  0.4660829460231639
  0.8248664464398843  0.8494531392768749  0.5339170493989229
  0.4837037541818816  0.4577099550741792  0.3954789331824387
  0.5162962444213690  0.5422900466102192  0.6045210682780322
  0.3608682408857646  0.2982911967332953  0.6337198707921274
  0.6391317582867515  0.7017088036620223  0.3662801294663467
  0.6235905739378538  0.5451415928629189  0.3841962989975514
  0.3764094254803894  0.4548584066090484  0.6158037006180379
  0.5811917925006043  0.4936984251148289  0.9961480926807411
  0.4188082076681070  0.5063015740845316  0.0038519076089401
  0.3106991389507243  0.9779965103685910  0.1725278123989824
  0.6893008599758019  0.0220034900083874  0.8274721888077892
  0.1544513292620238  0.8122668484377940  0.1923956269741751
  0.8455486706843729  0.1877331512553866  0.8076043693422719
  0.1377033064512858  0.0384170194859621  0.9082650205296332
  0.8622966926970577  0.9615829802171376  0.0917349785314130
  0.3277432306808734  0.2502555205469363  0.2290130698461539
  0.6722567700297191  0.7497444796671928  0.7709869310958339
  0.8690177849721010  0.7986948134779155  0.1384486691862179
  0.1309822152851581  0.2013051873043352  0.8615513293038859
  0.3972685949699510  0.0716845650090647  0.9474642384776573
  0.6027314056053328  0.9283154342688960  0.0525357619377900
  0.0296736257264385  0.7090928669635161  0.4027903294345663
  0.9703263715768031  0.2909071339576386  0.5972096715154791
  0.9205450536493842  0.3230560065286383  0.2346617120103218
  0.0794549475353676  0.6769439922499387  0.7653382893162259
  0.8080619743309185  0.2019554671456802  0.1303901616759688
  0.1919380257631573  0.7980445317123355  0.8696098381362702
  0.5466272809870816  0.9605680136710149  0.3843730881168526
  0.4533727188656300  0.0394319852884664  0.6156269123854017
  0.1638885029232640  0.5769454290058817  0.9902313937514009
  0.8361114956120375  0.4230545703940436  0.0097686066670519
  0.6291559096343349  0.3324419800657097  0.7120216226184652
  0.3708440917782667  0.6675580190150256  0.2879783758721501
  0.7188016665521317  0.2760319620901868  0.3606390994812330
  0.2811983314821802  0.7239680388550269  0.6393609012543990
  0.8259861467136673  0.7512160293314665  0.7499818082643799
  0.1740138573833363  0.2487839687512334  0.2500181874780907
  0.4443959565238913  0.7718144035040879  0.0624071093034573
  0.5556040434523553  0.2281855964180153  0.9375928907120681
  0.3498395874817106  0.9178744071346827  0.5103758220222900
  0.6501604123176534  0.0821255946282520  0.4896241786146049
  0.5751425067961335  0.1766693310360949  0.2619798767059862
  0.4248574932592035  0.8233306696861433  0.7380201259293031
  0.9486016553092185  0.5407938784940072  0.1140243521539261
  0.0513983469995125  0.4592061217441525  0.8859756458162025
  0.8907272521772711  0.5783692223160273  0.4531736727540832
  0.1092727487309233  0.4216307764910638  0.5468263237650604
  0.1971460641508713  0.5104411481916671  0.2501128539764252
  0.8028539359389271  0.4895588505469135  0.7498871531559175
  0.2594828113390335  0.5622893361743095  0.4098788412039269
  0.7405171867273808  0.4377106664553096  0.5901211595590539
  0.7783245202990798  0.1179389041576968  0.5706614536141004
  0.2216754800541665  0.8820610969139224  0.4293385486970678
  0.0610882133093256  0.0851626152607565  0.5251039259409680
  0.9389117850703457  0.9148373863795598  0.4748960758730618
 
  0.00000000E+00  0.00000000E+00  0.00000000E+00
  0.00000000E+00  0.00000000E+00  0.00000000E+00
  0.00000000E+00  0.00000000E+00  0.00000000E+00
  0.00000000E+00  0.00000000E+00  0.00000000E+00
  0.00000000E+00  0.00000000E+00  0.00000000E+00
  0.00000000E+00  0.00000000E+00  0.00000000E+00
  0.00000000E+00  0.00000000E+00  0.00000000E+00
  0.00000000E+00  0.00000000E+00  0.00000000E+00
  0.00000000E+00  0.00000000E+00  0.00000000E+00
  0.00000000E+00  0.00000000E+00  0.00000000E+00
  0.00000000E+00  0.00000000E+00  0.00000000E+00
  0.00000000E+00  0.00000000E+00  0.00000000E+00
  0.00000000E+00  0.00000000E+00  0.00000000E+00
  0.00000000E+00  0.00000000E+00  0.00000000E+00
  0.00000000E+00  0.00000000E+00  0.00000000E+00
  0.00000000E+00  0.00000000E+00  0.00000000E+00
  0.00000000E+00  0.00000000E+00  0.00000000E+00
  0.00000000E+00  0.00000000E+00  0.00000000E+00
  0.00000000E+00  0.00000000E+00  0.00000000E+00
  0.00000000E+00  0.00000000E+00  0.00000000E+00
  0.00000000E+00  0.00000000E+00  0.00000000E+00
  0.00000000E+00  0.00000000E+00  0.00000000E+00
  0.00000000E+00  0.00000000E+00  0.00000000E+00
  0.00000000E+00  0.00000000E+00  0.00000000E+00
  0.00000000E+00  0.00000000E+00  0.00000000E+00
  0.00000000E+00  0.00000000E+00  0.00000000E+00
  0.00000000E+00  0.00000000E+00  0.00000000E+00
  0.00000000E+00  0.00000000E+00  0.00000000E+00
  0.00000000E+00  0.00000000E+00  0.00000000E+00
  0.00000000E+00  0.00000000E+00  0.00000000E+00
  0.00000000E+00  0.00000000E+00  0.00000000E+00
  0.00000000E+00  0.00000000E+00  0.00000000E+00
  0.00000000E+00  0.00000000E+00  0.00000000E+00
  0.00000000E+00  0.00000000E+00  0.00000000E+00
  0.00000000E+00  0.00000000E+00  0.00000000E+00
  0.00000000E+00  0.00000000E+00  0.00000000E+00
  0.00000000E+00  0.00000000E+00  0.00000000E+00
  0.00000000E+00  0.00000000E+00  0.00000000E+00
  0.00000000E+00  0.00000000E+00  0.00000000E+00
  0.00000000E+00  0.00000000E+00  0.00000000E+00
  0.00000000E+00  0.00000000E+00  0.00000000E+00
  0.00000000E+00  0.00000000E+00  0.00000000E+00
  0.00000000E+00  0.00000000E+00  0.00000000E+00
  0.00000000E+00  0.00000000E+00  0.00000000E+00
  0.00000000E+00  0.00000000E+00  0.00000000E+00
  0.00000000E+00  0.00000000E+00  0.00000000E+00
  0.00000000E+00  0.00000000E+00  0.00000000E+00
  0.00000000E+00  0.00000000E+00  0.00000000E+00
  0.00000000E+00  0.00000000E+00  0.00000000E+00
  0.00000000E+00  0.00000000E+00  0.00000000E+00
  0.00000000E+00  0.00000000E+00  0.00000000E+00
  0.00000000E+00  0.00000000E+00  0.00000000E+00
  0.00000000E+00  0.00000000E+00  0.00000000E+00
  0.00000000E+00  0.00000000E+00  0.00000000E+00
  0.00000000E+00  0.00000000E+00  0.00000000E+00
  0.00000000E+00  0.00000000E+00  0.00000000E+00
  0.00000000E+00  0.00000000E+00  0.00000000E+00
  0.00000000E+00  0.00000000E+00  0.00000000E+00
  0.00000000E+00  0.00000000E+00  0.00000000E+00
  0.00000000E+00  0.00000000E+00  0.00000000E+00
  0.00000000E+00  0.00000000E+00  0.00000000E+00
  0.00000000E+00  0.00000000E+00  0.00000000E+00
  0.00000000E+00  0.00000000E+00  0.00000000E+00
  0.00000000E+00  0.00000000E+00  0.00000000E+00
  0.00000000E+00  0.00000000E+00  0.00000000E+00
  0.00000000E+00  0.00000000E+00  0.00000000E+00
  0.00000000E+00  0.00000000E+00  0.00000000E+00
  0.00000000E+00  0.00000000E+00  0.00000000E+00
  0.00000000E+00  0.00000000E+00  0.00000000E+00
  0.00000000E+00  0.00000000E+00  0.00000000E+00
  0.00000000E+00  0.00000000E+00  0.00000000E+00
  0.00000000E+00  0.00000000E+00  0.00000000E+00
  0.00000000E+00  0.00000000E+00  0.00000000E+00
  0.00000000E+00  0.00000000E+00  0.00000000E+00
  0.00000000E+00  0.00000000E+00  0.00000000E+00
  0.00000000E+00  0.00000000E+00  0.00000000E+00
  0.00000000E+00  0.00000000E+00  0.00000000E+00
  0.00000000E+00  0.00000000E+00  0.00000000E+00
  0.00000000E+00  0.00000000E+00  0.00000000E+00
  0.00000000E+00  0.00000000E+00  0.00000000E+00
  0.00000000E+00  0.00000000E+00  0.00000000E+00
  0.00000000E+00  0.00000000E+00  0.00000000E+00
  0.00000000E+00  0.00000000E+00  0.00000000E+00
  0.00000000E+00  0.00000000E+00  0.00000000E+00
  0.00000000E+00  0.00000000E+00  0.00000000E+00
  0.00000000E+00  0.00000000E+00  0.00000000E+00
  0.00000000E+00  0.00000000E+00  0.00000000E+00
  0.00000000E+00  0.00000000E+00  0.00000000E+00
  0.00000000E+00  0.00000000E+00  0.00000000E+00
  0.00000000E+00  0.00000000E+00  0.00000000E+00
  0.00000000E+00  0.00000000E+00  0.00000000E+00
  0.00000000E+00  0.00000000E+00  0.00000000E+00
