icsd_035369.cif                         
   1.00000000000000     
    10.6110739602000006   -0.0000013372422771   -0.0000006585354102
    -0.0000015872284377   12.5979034370999994    0.0000000974215479
    -0.0000006699745417    0.0000000862682596    9.9031489009500007
   Na   P 
    12    44
Direct
  0.5776148533936976  0.0071852311808627  0.2467406956623748
  0.0776149752540434  0.4928141834832758  0.2532592813073862
  0.4223858502988591  0.4928148054424994  0.7467406687863516
  0.9223849418903143  0.0071855669471361  0.7532591989621622
  0.4223849418703125  0.9928147779973457  0.7532594491602325
  0.9223848693995578  0.5071859244314609  0.7467407395498427
  0.5776141687193430  0.5071850638014652  0.2532593039353230
  0.0776148922465509  0.9928147516257084  0.2467405837136027
  0.7500000228500525  0.7483271732815737  0.0000000800636997
  0.2500000026174476  0.7516719979887156  0.4999999744744272
  0.2500000191832399  0.2516726029164360  0.9999999357878764
  0.7500000992064031  0.2483271533039755  0.5000000017928627
  0.7624547693498798  0.7669812029564156  0.3084214448500973
  0.2624546484310528  0.7330187375252706  0.1915785308308386
  0.2375454477202155  0.7330188164769424  0.8084213711912938
  0.7375453004449994  0.7669812131244456  0.6915786483936088
  0.2375451988995536  0.2330188269988156  0.6915785612290577
  0.7375453180337033  0.2669812889035512  0.8084214386823945
  0.7624546120947713  0.2669811527312049  0.1915786600594558
  0.2624547681341056  0.2330189011032928  0.3084213744045030
  0.5696071254026052  0.7991447194831878  0.3966511149265131
  0.0696070274306848  0.7008551877547546  0.1033487278463170
  0.4303930691927036  0.7008553419684418  0.8966511826637600
  0.9303929353842690  0.7991448255882645  0.6033489868144741
  0.4303928524382172  0.2008552920403659  0.6033489289581340
  0.9303929207971606  0.2991448906410099  0.8966512267628346
  0.5696070145075680  0.2991446442211085  0.1033488709777757
  0.0696071027592282  0.2008553629671823  0.3966509926930755
  0.8819151180018139  0.8873050591269163  0.4166566605862272
  0.3819150465077854  0.6126949641979635  0.0833433589397572
  0.1180849458497732  0.6126950226503354  0.9166563839553277
  0.6180848710579099  0.8873050003686203  0.5833434442258039
  0.1180848026075765  0.1126950634855959  0.5833433436786635
  0.6180849700617586  0.3873050771523125  0.9166567317551397
  0.8819150178765369  0.3873050184919080  0.0833435908517899
  0.3819151103099117  0.1126950860179647  0.4166564962089794
  0.8164255893767489  0.6140833035412783  0.4132457683180277
  0.3164255763240078  0.8859166857779002  0.0867542772207912
  0.1835745977194065  0.8859167148845160  0.9132457482288530
  0.6835745305128569  0.6140833023204451  0.5867542307700191
  0.1835744754248196  0.3859167780775437  0.5867542684140830
  0.6835744146616065  0.1140833340927330  0.9132457083214831
  0.8164255009963313  0.1140832890448493  0.0867542011626625
  0.3164256135040446  0.3859167778683741  0.4132458337940221
  0.4914183799716341  0.8532766009937234  0.9772377657338751
  0.9914183287710188  0.6467236160873071  0.5227623487481665
  0.5085817102839769  0.6467234851646424  0.4772377571425679
  0.0085817500787826  0.8532764209375046  0.0227620599988612
  0.5085816414546116  0.1467234027884317  0.0227622439385513
  0.0085816517071606  0.3532765144172387  0.4772377936865198
  0.4914184671004236  0.3532764714146310  0.5227622271408521
  0.9914182894300652  0.1467236369682823  0.9772378160400734
  0.7499999657089305  0.5027479325753603  0.0000003558588162
  0.2499998750132164  0.9972519253193113  0.4999997774695970
  0.2500000085007272  0.4972519848335608  0.9999997061807662
  0.7500000032360461  0.0027478945160482  0.5000001271495051
 
  0.00000000E+00  0.00000000E+00  0.00000000E+00
  0.00000000E+00  0.00000000E+00  0.00000000E+00
  0.00000000E+00  0.00000000E+00  0.00000000E+00
  0.00000000E+00  0.00000000E+00  0.00000000E+00
  0.00000000E+00  0.00000000E+00  0.00000000E+00
  0.00000000E+00  0.00000000E+00  0.00000000E+00
  0.00000000E+00  0.00000000E+00  0.00000000E+00
  0.00000000E+00  0.00000000E+00  0.00000000E+00
  0.00000000E+00  0.00000000E+00  0.00000000E+00
  0.00000000E+00  0.00000000E+00  0.00000000E+00
  0.00000000E+00  0.00000000E+00  0.00000000E+00
  0.00000000E+00  0.00000000E+00  0.00000000E+00
  0.00000000E+00  0.00000000E+00  0.00000000E+00
  0.00000000E+00  0.00000000E+00  0.00000000E+00
  0.00000000E+00  0.00000000E+00  0.00000000E+00
  0.00000000E+00  0.00000000E+00  0.00000000E+00
  0.00000000E+00  0.00000000E+00  0.00000000E+00
  0.00000000E+00  0.00000000E+00  0.00000000E+00
  0.00000000E+00  0.00000000E+00  0.00000000E+00
  0.00000000E+00  0.00000000E+00  0.00000000E+00
  0.00000000E+00  0.00000000E+00  0.00000000E+00
  0.00000000E+00  0.00000000E+00  0.00000000E+00
  0.00000000E+00  0.00000000E+00  0.00000000E+00
  0.00000000E+00  0.00000000E+00  0.00000000E+00
  0.00000000E+00  0.00000000E+00  0.00000000E+00
  0.00000000E+00  0.00000000E+00  0.00000000E+00
  0.00000000E+00  0.00000000E+00  0.00000000E+00
  0.00000000E+00  0.00000000E+00  0.00000000E+00
  0.00000000E+00  0.00000000E+00  0.00000000E+00
  0.00000000E+00  0.00000000E+00  0.00000000E+00
  0.00000000E+00  0.00000000E+00  0.00000000E+00
  0.00000000E+00  0.00000000E+00  0.00000000E+00
  0.00000000E+00  0.00000000E+00  0.00000000E+00
  0.00000000E+00  0.00000000E+00  0.00000000E+00
  0.00000000E+00  0.00000000E+00  0.00000000E+00
  0.00000000E+00  0.00000000E+00  0.00000000E+00
  0.00000000E+00  0.00000000E+00  0.00000000E+00
  0.00000000E+00  0.00000000E+00  0.00000000E+00
  0.00000000E+00  0.00000000E+00  0.00000000E+00
  0.00000000E+00  0.00000000E+00  0.00000000E+00
  0.00000000E+00  0.00000000E+00  0.00000000E+00
  0.00000000E+00  0.00000000E+00  0.00000000E+00
  0.00000000E+00  0.00000000E+00  0.00000000E+00
  0.00000000E+00  0.00000000E+00  0.00000000E+00
  0.00000000E+00  0.00000000E+00  0.00000000E+00
  0.00000000E+00  0.00000000E+00  0.00000000E+00
  0.00000000E+00  0.00000000E+00  0.00000000E+00
  0.00000000E+00  0.00000000E+00  0.00000000E+00
  0.00000000E+00  0.00000000E+00  0.00000000E+00
  0.00000000E+00  0.00000000E+00  0.00000000E+00
  0.00000000E+00  0.00000000E+00  0.00000000E+00
  0.00000000E+00  0.00000000E+00  0.00000000E+00
  0.00000000E+00  0.00000000E+00  0.00000000E+00
  0.00000000E+00  0.00000000E+00  0.00000000E+00
  0.00000000E+00  0.00000000E+00  0.00000000E+00
  0.00000000E+00  0.00000000E+00  0.00000000E+00
