icsd_412594.cif                         
   1.00000000000000     
     6.7399135899999996   -0.0000008744923367   -0.0000097749459579
    -0.0000009203943738    7.0837083653099997   -0.0000073268198049
    -0.0000178096292065   -0.0000126436777693   12.2659125905999993
   As   Rb
     8     8
Direct
  0.8316098795139553  0.6840230079701684  0.3943636261237060
  0.6683893150173574  0.3159770251562506  0.8943637774681932
  0.3316111352978481  0.8159778122744896  0.6056362261221295
  0.1683904793411344  0.1840236446565413  0.1056364666220801
  0.5914036975535808  0.9254583630336199  0.4688519277814720
  0.9085956500987820  0.0745410398635187  0.9688514446281715
  0.0914038804098709  0.5745408651353685  0.5311482723498884
  0.4085960906765749  0.4254582969752789  0.0311482725536223
  0.9007411232278386  0.6091842997409032  0.0822493644963416
  0.5992590324236815  0.3908158526428025  0.5822494517086696
  0.4007411135661556  0.8908156933423044  0.9177505722325847
  0.0992590143747947  0.1091841512883391  0.4177506003690965
  0.3327674872738626  0.6462495130281809  0.2875841359241562
  0.1672323998705778  0.3537500897168684  0.7875841335561873
  0.8327673825147457  0.8537504609170625  0.7124158390293687
  0.6672323188392326  0.1462498842582960  0.2124158890343182
 
  0.00000000E+00  0.00000000E+00  0.00000000E+00
  0.00000000E+00  0.00000000E+00  0.00000000E+00
  0.00000000E+00  0.00000000E+00  0.00000000E+00
  0.00000000E+00  0.00000000E+00  0.00000000E+00
  0.00000000E+00  0.00000000E+00  0.00000000E+00
  0.00000000E+00  0.00000000E+00  0.00000000E+00
  0.00000000E+00  0.00000000E+00  0.00000000E+00
  0.00000000E+00  0.00000000E+00  0.00000000E+00
  0.00000000E+00  0.00000000E+00  0.00000000E+00
  0.00000000E+00  0.00000000E+00  0.00000000E+00
  0.00000000E+00  0.00000000E+00  0.00000000E+00
  0.00000000E+00  0.00000000E+00  0.00000000E+00
  0.00000000E+00  0.00000000E+00  0.00000000E+00
  0.00000000E+00  0.00000000E+00  0.00000000E+00
  0.00000000E+00  0.00000000E+00  0.00000000E+00
  0.00000000E+00  0.00000000E+00  0.00000000E+00
