icsd_056529.cif                         
   1.00000000000000     
     7.2881194900099997    0.0000006071775937    0.0101191056418000
     0.0000006016369190    7.0763086236700001   -0.0000000982701077
    -5.7777620432600001   -0.0000006468932583   12.2708598223000003
   Sb   K 
     8     8
Direct
  0.3216435234849087  0.6004331200372590  0.7864127389236160
  0.6783565819552493  0.1004330616470313  0.7135872779185561
  0.6783565286097755  0.3995668549999820  0.2135872318648993
  0.3216434051075439  0.8995669145126683  0.2864127446533544
  0.3208136608707690  0.3336080834212041  0.6230085403836725
  0.6791863454959284  0.8336080732380609  0.8769914499219595
  0.6791863658012787  0.6663919500571467  0.3769915024609034
  0.3208135964793257  0.1663919230776898  0.1230085145129962
  0.2198624652898502  0.1013368383988293  0.8303117799631892
  0.7801375758466946  0.6013368239839210  0.6696882005129652
  0.7801375553714252  0.8986631677818977  0.1696882268075655
  0.2198624016404978  0.3986631824928182  0.3303117917403284
  0.2425263037480718  0.8338313419688248  0.5340393495330815
  0.7574737892520034  0.3338313021839525  0.9659606794529338
  0.7574736982222134  0.1661686596927368  0.4659606516405361
  0.2425262028244646  0.6661687025059635  0.0340393197094571
 
  0.00000000E+00  0.00000000E+00  0.00000000E+00
  0.00000000E+00  0.00000000E+00  0.00000000E+00
  0.00000000E+00  0.00000000E+00  0.00000000E+00
  0.00000000E+00  0.00000000E+00  0.00000000E+00
  0.00000000E+00  0.00000000E+00  0.00000000E+00
  0.00000000E+00  0.00000000E+00  0.00000000E+00
  0.00000000E+00  0.00000000E+00  0.00000000E+00
  0.00000000E+00  0.00000000E+00  0.00000000E+00
  0.00000000E+00  0.00000000E+00  0.00000000E+00
  0.00000000E+00  0.00000000E+00  0.00000000E+00
  0.00000000E+00  0.00000000E+00  0.00000000E+00
  0.00000000E+00  0.00000000E+00  0.00000000E+00
  0.00000000E+00  0.00000000E+00  0.00000000E+00
  0.00000000E+00  0.00000000E+00  0.00000000E+00
  0.00000000E+00  0.00000000E+00  0.00000000E+00
  0.00000000E+00  0.00000000E+00  0.00000000E+00
