icsd_026473.cif                         
   1.00000000000000     
     6.8362546167899998    0.0000011029907110   -0.0027982220205100
     0.0000010081372415    6.4184289435500004   -0.0000005688534948
    -5.8175113183100002   -0.0000019154951209   11.1397307982000005
   Sb   Na
     8     8
Direct
  0.3061854553276930  0.5955866952601667  0.7960010063279981
  0.6938146020910381  0.0955860454632713  0.7039988947094500
  0.6938145090632446  0.4044133069962257  0.2039990014364079
  0.3061854243066762  0.9044139686033787  0.2960010991833286
  0.2910076037782261  0.3373792580112820  0.6031834818914987
  0.7089925242359101  0.8373793406701679  0.8968165148664511
  0.7089924239092582  0.6626207352149578  0.3968165383370703
  0.2910074634200512  0.1626206318896024  0.1031834729046608
  0.2307608915200490  0.0988506024031963  0.8257159760103505
  0.7692390641575457  0.5988499975631143  0.6742840208365593
  0.7692391553908564  0.9011494285949126  0.1742840095795799
  0.2307608803852830  0.4011500166586046  0.3257159791937525
  0.2325678313253903  0.8364331104454834  0.5404257620315818
  0.7674313027017163  0.3364339769052549  0.9595741059391969
  0.7674321817335326  0.1635668720956289  0.4595742463307246
  0.2325686866535435  0.6635660132247381  0.0404258904213819
 
  0.00000000E+00  0.00000000E+00  0.00000000E+00
  0.00000000E+00  0.00000000E+00  0.00000000E+00
  0.00000000E+00  0.00000000E+00  0.00000000E+00
  0.00000000E+00  0.00000000E+00  0.00000000E+00
  0.00000000E+00  0.00000000E+00  0.00000000E+00
  0.00000000E+00  0.00000000E+00  0.00000000E+00
  0.00000000E+00  0.00000000E+00  0.00000000E+00
  0.00000000E+00  0.00000000E+00  0.00000000E+00
  0.00000000E+00  0.00000000E+00  0.00000000E+00
  0.00000000E+00  0.00000000E+00  0.00000000E+00
  0.00000000E+00  0.00000000E+00  0.00000000E+00
  0.00000000E+00  0.00000000E+00  0.00000000E+00
  0.00000000E+00  0.00000000E+00  0.00000000E+00
  0.00000000E+00  0.00000000E+00  0.00000000E+00
  0.00000000E+00  0.00000000E+00  0.00000000E+00
  0.00000000E+00  0.00000000E+00  0.00000000E+00
