icsd_616780.cif                         
   1.00000000000000     
     3.3398122845399998   -0.0000106669561856   -0.0000041944873338
    -0.0000106666241512    3.3398155062499999   -0.0000041941360023
    -0.0000053177661058   -0.0000053136837022    4.3100742603000004
   Bi   Li
     1     1
Direct
  0.9999999970509350  0.0000001065078692  0.9999999573878213
  0.5000000029490650  0.4999998934921308  0.5000000426121787
 
  0.00000000E+00  0.00000000E+00  0.00000000E+00
  0.00000000E+00  0.00000000E+00  0.00000000E+00
